# 0 [Electrical conductivity in SI units, i.e. in 1/Ohm/m]
# Mu(eV) T(K) N(#carriers) sigma_xx sigma_xy sigma_xz sigma_yy sigma_yz sigma_zz
# T(K) = 300.00   Npoints =    1001   V(cm^3) =  1.231E-20
   -5.00   300.000    3.454E+02    1.9683906E+06    6.0437888E+02   -3.2709796E+04    1.8214570E+06   -6.0438466E+02    1.9683906E+06
   -4.99   300.000    3.447E+02    1.9481650E+06   -3.3995973E+02   -1.9487927E+04    1.8131740E+06    3.3995365E+02    1.9481650E+06
   -4.98   300.000    3.439E+02    1.9132389E+06   -1.2806700E+03   -8.7584369E+03    1.7971319E+06    1.2806636E+03    1.9132389E+06
   -4.97   300.000    3.432E+02    1.8680291E+06   -1.9959061E+03   -1.5911091E+03    1.7751446E+06    1.9958993E+03    1.8680291E+06
   -4.96   300.000    3.425E+02    1.8175840E+06   -2.2878950E+03    2.1791480E+03    1.7484055E+06    2.2878881E+03    1.8175840E+06
   -4.95   300.000    3.417E+02    1.7668130E+06   -2.0737681E+03    3.6189806E+03    1.7175578E+06    2.0737610E+03    1.7668130E+06
   -4.94   300.000    3.410E+02    1.7198118E+06   -1.4218229E+03    4.0299441E+03    1.6835365E+06    1.4218160E+03    1.7198118E+06
   -4.93   300.000    3.402E+02    1.6793079E+06   -5.1267721E+02    4.3963169E+03    1.6483187E+06    5.1267025E+02    1.6793079E+06
   -4.92   300.000    3.395E+02    1.6463959E+06    4.4676791E+02    5.2049925E+03    1.6147883E+06   -4.4677530E+02    1.6463959E+06
   -4.91   300.000    3.387E+02    1.6205567E+06    1.3119422E+03    6.5785198E+03    1.5855604E+06   -1.3119507E+03    1.6205567E+06
   -4.90   300.000    3.380E+02    1.5999216E+06    2.0428695E+03    8.4669306E+03    1.5615630E+06   -2.0428798E+03    1.5999216E+06
   -4.89   300.000    3.372E+02    1.5818357E+06    2.6709105E+03    1.0710658E+04    1.5414934E+06   -2.6709235E+03    1.5818357E+06
   -4.88   300.000    3.364E+02    1.5635944E+06    3.2217733E+03    1.3023088E+04    1.5224918E+06   -3.2217897E+03    1.5635944E+06
   -4.87   300.000    3.356E+02    1.5429991E+06    3.6680753E+03    1.5036470E+04    1.5014204E+06   -3.6680954E+03    1.5429991E+06
   -4.86   300.000    3.348E+02    1.5185678E+06    3.9443054E+03    1.6425449E+04    1.4759541E+06   -3.9443293E+03    1.5185678E+06
   -4.85   300.000    3.340E+02    1.4895779E+06    3.9896934E+03    1.7024200E+04    1.4451124E+06   -3.9897201E+03    1.4895779E+06
   -4.84   300.000    3.332E+02    1.4561158E+06    3.7789486E+03    1.6893493E+04    1.4092803E+06   -3.7789768E+03    1.4561158E+06
   -4.83   300.000    3.325E+02    1.4190326E+06    3.3350275E+03    1.6312279E+04    1.3698665E+06   -3.3350556E+03    1.4190327E+06
   -4.82   300.000    3.318E+02    1.3796030E+06    2.7257030E+03    1.5625577E+04    1.3286538E+06   -2.7257295E+03    1.3796031E+06
   -4.81   300.000    3.311E+02    1.3389633E+06    2.0418697E+03    1.4965339E+04    1.2869932E+06   -2.0418936E+03    1.3389633E+06
   -4.80   300.000    3.304E+02    1.2977221E+06    1.3743239E+03    1.4088221E+04    1.2452573E+06   -1.3743451E+03    1.2977221E+06
   -4.79   300.000    3.297E+02    1.2560184E+06    8.0967273E+02    1.2571737E+04    1.2029176E+06   -8.0969138E+02    1.2560185E+06
   -4.78   300.000    3.291E+02    1.2138260E+06    4.3278303E+02    1.0229709E+04    1.1591618E+06   -4.3279993E+02    1.2138260E+06
   -4.77   300.000    3.285E+02    1.1710543E+06    3.0673159E+02    7.3426201E+03    1.1135842E+06   -3.0674758E+02    1.1710543E+06
   -4.76   300.000    3.279E+02    1.1272772E+06    4.3044396E+02    4.5121022E+03    1.0664617E+06   -4.3045983E+02    1.1272772E+06
   -4.75   300.000    3.274E+02    1.0814314E+06    7.1159686E+02    2.3084823E+03    1.0184179E+06   -7.1161326E+02    1.0814314E+06
   -4.74   300.000    3.269E+02    1.0319886E+06    9.9602264E+02    9.9041991E+02    9.6976620E+05   -9.9603991E+02    1.0319886E+06
   -4.73   300.000    3.264E+02    9.7768908E+05    1.1490224E+03    4.5563640E+02    9.2010405E+05   -1.1490406E+03    9.7768908E+05
   -4.72   300.000    3.259E+02    9.1831418E+05    1.1254839E+03    3.9016512E+02    8.6847912E+05   -1.1255028E+03    9.1831418E+05
   -4.71   300.000    3.255E+02    8.5491736E+05    9.7193336E+02    4.5607979E+02    8.1399241E+05   -9.7195245E+02    8.5491736E+05
   -4.70   300.000    3.251E+02    7.8950272E+05    7.7328190E+02    3.9519201E+02    7.5653027E+05   -7.7330058E+02    7.8950272E+05
   -4.69   300.000    3.247E+02    7.2452837E+05    5.9702106E+02    5.5199660E+01    6.9725494E+05   -5.9703867E+02    7.2452838E+05
   -4.68   300.000    3.243E+02    6.6239354E+05    4.6719883E+02   -6.0775538E+02    6.3844512E+05   -4.6721484E+02    6.6239354E+05
   -4.67   300.000    3.240E+02    6.0484958E+05    3.6927378E+02   -1.5409055E+03    5.8261095E+05   -3.6928790E+02    6.0484958E+05
   -4.66   300.000    3.236E+02    5.5249180E+05    2.7037816E+02   -2.6319513E+03    5.3138901E+05   -2.7039039E+02    5.5249181E+05
   -4.65   300.000    3.233E+02    5.0470389E+05    1.3884722E+02   -3.7603592E+03    4.8493776E+05   -1.3885778E+02    5.0470390E+05
   -4.64   300.000    3.230E+02    4.6021001E+05   -4.0055877E+01   -4.8381742E+03    4.4221352E+05    4.0046691E+01    4.6021002E+05
   -4.63   300.000    3.227E+02    4.1791110E+05   -2.5116320E+02   -5.8195972E+03    4.0188576E+05    2.5115512E+02    4.1791112E+05
   -4.62   300.000    3.224E+02    3.7743641E+05   -4.4898380E+02   -6.6843813E+03    3.6319062E+05    4.4897663E+02    3.7743643E+05
   -4.61   300.000    3.221E+02    3.3912177E+05   -5.7722070E+02   -7.4262952E+03    3.2615961E+05    5.7721434E+02    3.3912178E+05
   -4.60   300.000    3.218E+02    3.0361370E+05   -5.9587716E+02   -8.0599951E+03    2.9127647E+05    5.9587156E+02    3.0361372E+05
   -4.59   300.000    3.215E+02    2.7147754E+05   -4.9693158E+02   -8.6237806E+03    2.5904422E+05    4.9692674E+02    2.7147756E+05
   -4.58   300.000    3.212E+02    2.4300378E+05   -3.0279682E+02   -9.1579922E+03    2.2980513E+05    3.0279275E+02    2.4300380E+05
   -4.57   300.000    3.208E+02    2.1818337E+05   -5.3502256E+01   -9.6724695E+03    2.0377121E+05    5.3498932E+01    2.1818339E+05
   -4.56   300.000    3.205E+02    1.9678758E+05    2.0915526E+02   -1.0134214E+04    1.8108943E+05   -2.0915789E+02    1.9678759E+05
   -4.55   300.000    3.201E+02    1.7853429E+05    4.5280007E+02   -1.0484150E+04    1.6189902E+05   -4.5280209E+02    1.7853430E+05
   -4.54   300.000    3.197E+02    1.6326023E+05    6.5657768E+02   -1.0659897E+04    1.4640368E+05   -6.5657921E+02    1.6326025E+05
   -4.53   300.000    3.192E+02    1.5094879E+05    8.0695356E+02   -1.0604252E+04    1.3490150E+05   -8.0695471E+02    1.5094880E+05
   -4.52   300.000    3.187E+02    1.4158237E+05    8.9445984E+02   -1.0268921E+04    1.2770119E+05   -8.9446073E+02    1.4158238E+05
   -4.51   300.000    3.181E+02    1.3497498E+05    9.1527693E+02   -9.6321808E+03    1.2496097E+05   -9.1527765E+02    1.3497499E+05
   -4.50   300.000    3.175E+02    1.3074641E+05    8.7536913E+02   -8.7244121E+03    1.2656147E+05   -8.7536975E+02    1.3074642E+05
   -4.49   300.000    3.168E+02    1.2844691E+05    7.9274043E+02   -7.6371873E+03    1.3208368E+05   -7.9274094E+02    1.2844692E+05
   -4.48   300.000    3.161E+02    1.2772440E+05    6.9537945E+02   -6.5035132E+03    1.4086802E+05   -6.9537983E+02    1.2772441E+05
   -4.47   300.000    3.153E+02    1.2842248E+05    6.1522953E+02   -5.4535854E+03    1.5207708E+05   -6.1522971E+02    1.2842248E+05
   -4.46   300.000    3.145E+02    1.3056475E+05    5.8000710E+02   -4.5594188E+03    1.6473128E+05   -5.8000705E+02    1.3056476E+05
   -4.45   300.000    3.137E+02    1.3425750E+05    6.0521855E+02   -3.7969014E+03    1.7777233E+05   -6.0521828E+02    1.3425750E+05
   -4.44   300.000    3.129E+02    1.3957864E+05    6.8912868E+02   -3.0584870E+03    1.9021202E+05   -6.8912822E+02    1.3957864E+05
   -4.43   300.000    3.120E+02    1.4650752E+05    8.1293224E+02   -2.2185939E+03    2.0133322E+05   -8.1293163E+02    1.4650752E+05
   -4.42   300.000    3.112E+02    1.5491245E+05    9.4635097E+02   -1.2139689E+03    2.1083653E+05   -9.4635027E+02    1.5491245E+05
   -4.41   300.000    3.103E+02    1.6457277E+05    1.0560079E+03   -9.2990710E+01    2.1884258E+05   -1.0560072E+03    1.6457277E+05
   -4.40   300.000    3.094E+02    1.7519452E+05    1.1127564E+03    9.8969390E+02    2.2574612E+05   -1.1127559E+03    1.7519451E+05
   -4.39   300.000    3.084E+02    1.8640435E+05    1.0970646E+03    1.8262267E+03    2.3200709E+05   -1.0970644E+03    1.8640434E+05
   -4.38   300.000    3.073E+02    1.9774385E+05    1.0036855E+03    2.2309164E+03    2.3796942E+05   -1.0036859E+03    1.9774385E+05
   -4.37   300.000    3.061E+02    2.0868681E+05    8.4433569E+02    2.1103451E+03    2.4372886E+05   -8.4433657E+02    2.0868680E+05
   -4.36   300.000    3.047E+02    2.1867592E+05    6.4618259E+02    1.5002577E+03    2.4905357E+05   -6.4618387E+02    2.1867591E+05
   -4.35   300.000    3.032E+02    2.2716048E+05    4.4525415E+02    5.4683499E+02    2.5340938E+05   -4.4525565E+02    2.2716048E+05
   -4.34   300.000    3.014E+02    2.3362125E+05    2.7394154E+02   -5.5758792E+02    2.5611716E+05   -2.7394312E+02    2.3362124E+05
   -4.33   300.000    2.993E+02    2.3758675E+05    1.4633853E+02   -1.6379316E+03    2.5656570E+05   -1.4634013E+02    2.3758675E+05
   -4.32   300.000    2.969E+02    2.3866252E+05    5.1951609E+01   -2.5637221E+03    2.5436006E+05   -5.1953217E+01    2.3866251E+05
   -4.31   300.000    2.941E+02    2.3658327E+05   -3.5114181E+01   -3.2510135E+03    2.4934807E+05    3.5112552E+01    2.3658326E+05
   -4.30   300.000    2.910E+02    2.3127236E+05   -1.3647605E+02   -3.6656257E+03    2.4156569E+05    1.3647441E+02    2.3127235E+05
   -4.29   300.000    2.876E+02    2.2288564E+05   -2.5279955E+02   -3.8300310E+03    2.3119106E+05    2.5279795E+02    2.2288563E+05
   -4.28   300.000    2.839E+02    2.1182467E+05   -3.6224170E+02   -3.8176237E+03    2.1855291E+05    3.6224020E+02    2.1182466E+05
   -4.27   300.000    2.799E+02    1.9870916E+05   -4.3533138E+02   -3.7273709E+03    2.0415832E+05    4.3533004E+02    1.9870914E+05
   -4.26   300.000    2.759E+02    1.8430797E+05   -4.5463990E+02   -3.6495849E+03    1.8868038E+05    4.5463883E+02    1.8430796E+05
   -4.25   300.000    2.717E+02    1.6944609E+05   -4.2451968E+02   -3.6401025E+03    1.7288731E+05    4.2451898E+02    1.6944608E+05
   -4.24   300.000    2.676E+02    1.5491391E+05   -3.6616886E+02   -3.7128253E+03    1.5754255E+05    3.6616862E+02    1.5491390E+05
   -4.23   300.000    2.635E+02    1.4139692E+05   -3.0475625E+02   -3.8480373E+03    1.4331845E+05    3.0475654E+02    1.4139691E+05
   -4.22   300.000    2.595E+02    1.2943075E+05   -2.5800981E+02   -4.0080298E+03    1.3074763E+05    2.5801067E+02    1.2943074E+05
   -4.21   300.000    2.555E+02    1.1938740E+05   -2.3171849E+02   -4.1540879E+03    1.2020906E+05    2.3171989E+02    1.1938739E+05
   -4.20   300.000    2.517E+02    1.1149842E+05   -2.2259538E+02   -4.2611264E+03    1.1193867E+05    2.2259725E+02    1.1149841E+05
   -4.19   300.000    2.478E+02    1.0590162E+05   -2.2480239E+02   -4.3258174E+03    1.0605771E+05    2.2480458E+02    1.0590162E+05
   -4.18   300.000    2.440E+02    1.0267352E+05   -2.3485453E+02   -4.3660381E+03    1.0260455E+05    2.3485685E+02    1.0267351E+05
   -4.17   300.000    2.401E+02    1.0181655E+05   -2.5199664E+02   -4.4129257E+03    1.0154604E+05    2.5199894E+02    1.0181654E+05
   -4.16   300.000    2.361E+02    1.0321000E+05   -2.7554876E+02   -4.4978600E+03    1.0275848E+05    2.7555090E+02    1.0321000E+05
   -4.15   300.000    2.320E+02    1.0657000E+05   -3.0359308E+02   -4.6379208E+03    1.0600027E+05    3.0359498E+02    1.0657000E+05
   -4.14   300.000    2.277E+02    1.1146577E+05   -3.3644942E+02   -4.8265020E+03    1.1091209E+05    3.3645106E+02    1.1146577E+05
   -4.13   300.000    2.233E+02    1.1740337E+05   -3.8416797E+02   -5.0352065E+03    1.1706110E+05    3.8416938E+02    1.1740337E+05
   -4.12   300.000    2.187E+02    1.2394072E+05   -4.7274482E+02   -5.2260491E+03    1.2401256E+05    4.7274603E+02    1.2394072E+05
   -4.11   300.000    2.139E+02    1.3077556E+05   -6.4190282E+02   -5.3666706E+03    1.3139658E+05    6.4190390E+02    1.3077557E+05
   -4.10   300.000    2.091E+02    1.3777190E+05   -9.3070767E+02   -5.4427906E+03    1.3894600E+05    9.3070872E+02    1.3777190E+05
   -4.09   300.000    2.042E+02    1.4493645E+05   -1.3568970E+03   -5.4657485E+03    1.4650459E+05    1.3568981E+03    1.4493645E+05
   -4.08   300.000    1.993E+02    1.5238570E+05   -1.9046187E+03   -5.4705768E+03    1.5402332E+05    1.9046200E+03    1.5238570E+05
   -4.07   300.000    1.945E+02    1.6033632E+05   -2.5318770E+03   -5.5001110E+03    1.6156283E+05    2.5318787E+03    1.6033633E+05
   -4.06   300.000    1.898E+02    1.6911860E+05   -3.1928860E+03   -5.5837425E+03    1.6929725E+05    3.1928880E+03    1.6911861E+05
   -4.05   300.000    1.852E+02    1.7917595E+05   -3.8567098E+03   -5.7308823E+03    1.7748827E+05    3.8567122E+03    1.7917595E+05
   -4.04   300.000    1.809E+02    1.9100292E+05   -4.5066181E+03   -5.9468157E+03    1.8640321E+05    4.5066206E+03    1.9100292E+05
   -4.03   300.000    1.767E+02    2.0501279E+05   -5.1217145E+03   -6.2538579E+03    1.9619997E+05    5.1217171E+03    2.0501279E+05
   -4.02   300.000    1.728E+02    2.2139476E+05   -5.6574433E+03   -6.6975130E+03    2.0685530E+05    5.6574457E+03    2.2139476E+05
   -4.01   300.000    1.691E+02    2.4005351E+05   -6.0432572E+03   -7.3382147E+03    2.1821237E+05    6.0432591E+03    2.4005351E+05
   -4.00   300.000    1.656E+02    2.6067039E+05   -6.2036017E+03   -8.2399434E+03    2.3014647E+05    6.2036030E+03    2.6067039E+05
   -3.99   300.000    1.624E+02    2.8281929E+05   -6.0892540E+03   -9.4525451E+03    2.4273576E+05    6.0892547E+03    2.8281929E+05
   -3.98   300.000    1.594E+02    3.0601019E+05   -5.6959967E+03   -1.0972888E+04    2.5627214E+05    5.6959970E+03    3.0601019E+05
   -3.97   300.000    1.566E+02    3.2959294E+05   -5.0599082E+03   -1.2686906E+04    2.7103113E+05    5.0599083E+03    3.2959293E+05
   -3.96   300.000    1.541E+02    3.5258753E+05   -4.2401056E+03   -1.4327462E+04    2.8689672E+05    4.2401057E+03    3.5258752E+05
   -3.95   300.000    1.518E+02    3.7359936E+05   -3.3043468E+03   -1.5502117E+04    3.0306793E+05    3.3043470E+03    3.7359936E+05
   -3.94   300.000    1.497E+02    3.9096199E+05   -2.3197549E+03   -1.5825694E+04    3.1806624E+05    2.3197553E+03    3.9096198E+05
   -3.93   300.000    1.478E+02    4.0313183E+05   -1.3441749E+03   -1.5118906E+04    3.3012858E+05    1.3441753E+03    4.0313182E+05
   -3.92   300.000    1.461E+02    4.0919145E+05   -4.2184656E+02   -1.3545693E+04    3.3784809E+05    4.2184681E+02    4.0919144E+05
   -3.91   300.000    1.446E+02    4.0920947E+05    4.1056849E+02   -1.1561188E+04    3.4072126E+05   -4.1056858E+02    4.0920946E+05
   -3.90   300.000    1.431E+02    4.0426069E+05    1.1134599E+03   -9.6664606E+03    3.3928029E+05   -1.1134605E+03    4.0426069E+05
   -3.89   300.000    1.418E+02    3.9609764E+05    1.6411493E+03   -8.1206861E+03    3.3478204E+05   -1.6411505E+03    3.9609763E+05
   -3.88   300.000    1.405E+02    3.8663284E+05    1.9511058E+03   -6.8179948E+03    3.2871112E+05   -1.9511075E+03    3.8663284E+05
   -3.87   300.000    1.393E+02    3.7744159E+05    2.0202674E+03   -5.4271499E+03    3.2237513E+05   -2.0202695E+03    3.7744159E+05
   -3.86   300.000    1.381E+02    3.6943906E+05    1.8543103E+03   -3.6870520E+03    3.1668838E+05   -1.8543126E+03    3.6943906E+05
   -3.85   300.000    1.369E+02    3.6279268E+05    1.4802080E+03   -1.6314925E+03    3.1209469E+05   -1.4802103E+03    3.6279268E+05
   -3.84   300.000    1.358E+02    3.5706247E+05    9.3351630E+02    4.1273448E+02    3.0857625E+05   -9.3351845E+02    3.5706247E+05
   -3.83   300.000    1.346E+02    3.5152570E+05    2.5676947E+02    2.0189250E+03    3.0576002E+05   -2.5677122E+02    3.5152570E+05
   -3.82   300.000    1.335E+02    3.4559857E+05   -4.9818887E+02    2.8701592E+03    3.0315144E+05    4.9818763E+02    3.4559856E+05
   -3.81   300.000    1.324E+02    3.3919532E+05   -1.2808406E+03    2.8436049E+03    3.0044989E+05    1.2808399E+03    3.3919531E+05
   -3.80   300.000    1.313E+02    3.3283034E+05   -2.0571620E+03    1.9682993E+03    2.9778126E+05    2.0571617E+03    3.3283034E+05
   -3.79   300.000    1.302E+02    3.2738503E+05   -2.8037373E+03    3.5231650E+02    2.9567354E+05    2.8037374E+03    3.2738503E+05
   -3.78   300.000    1.292E+02    3.2369700E+05   -3.4808633E+03   -1.8335682E+03    2.9478437E+05    3.4808636E+03    3.2369699E+05
   -3.77   300.000    1.281E+02    3.2225546E+05   -4.0171863E+03   -4.3119734E+03    2.9560889E+05    4.0171867E+03    3.2225545E+05
   -3.76   300.000    1.270E+02    3.2316018E+05   -4.3292903E+03   -6.6842808E+03    2.9840206E+05    4.3292908E+03    3.2316018E+05
   -3.75   300.000    1.260E+02    3.2625884E+05   -4.3634220E+03   -8.5436342E+03    3.0331055E+05    4.3634223E+03    3.2625883E+05
   -3.74   300.000    1.249E+02    3.3126708E+05   -4.1280964E+03   -9.6905072E+03    3.1048098E+05    4.1280966E+03    3.3126708E+05
   -3.73   300.000    1.239E+02    3.3776197E+05   -3.6974421E+03   -1.0286801E+04    3.1992712E+05    3.6974421E+03    3.3776197E+05
   -3.72   300.000    1.228E+02    3.4508960E+05   -3.1857258E+03   -1.0807733E+04    3.3118654E+05    3.1857258E+03    3.4508960E+05
   -3.71   300.000    1.218E+02    3.5232467E+05   -2.7050376E+03   -1.1822091E+04    3.4306490E+05    2.7050375E+03    3.5232468E+05
   -3.70   300.000    1.208E+02    3.5841700E+05   -2.3212137E+03   -1.3757157E+04    3.5379064E+05    2.3212137E+03    3.5841700E+05
   -3.69   300.000    1.198E+02    3.6253363E+05   -2.0266159E+03   -1.6773971E+04    3.6160584E+05    2.0266160E+03    3.6253363E+05
   -3.68   300.000    1.188E+02    3.6441379E+05   -1.7480863E+03   -2.0763750E+04    3.6546066E+05    1.7480866E+03    3.6441380E+05
   -3.67   300.000    1.178E+02    3.6448316E+05   -1.3896477E+03   -2.5401557E+04    3.6540238E+05    1.3896481E+03    3.6448317E+05
   -3.66   300.000    1.168E+02    3.6363815E+05   -8.8088631E+02   -3.0206334E+04    3.6248728E+05    8.8088654E+02    3.6363815E+05
   -3.65   300.000    1.157E+02    3.6286133E+05   -1.9903074E+02   -3.4612305E+04    3.5835606E+05    1.9903058E+02    3.6286133E+05
   -3.64   300.000    1.147E+02    3.6291782E+05    6.3891846E+02   -3.8076569E+04    3.5476441E+05   -6.3891918E+02    3.6291782E+05
   -3.63   300.000    1.137E+02    3.6426416E+05    1.5964575E+03   -4.0202978E+04    3.5326058E+05   -1.5964589E+03    3.6426416E+05
   -3.62   300.000    1.126E+02    3.6713026E+05    2.6369787E+03   -4.0820450E+04    3.5499346E+05   -2.6369806E+03    3.6713026E+05
   -3.61   300.000    1.115E+02    3.7163426E+05    3.7396486E+03   -3.9984978E+04    3.6053321E+05   -3.7396510E+03    3.7163426E+05
   -3.60   300.000    1.105E+02    3.7779753E+05    4.9087258E+03   -3.7937538E+04    3.6965720E+05   -4.9087284E+03    3.7779753E+05
   -3.59   300.000    1.094E+02    3.8544434E+05    6.1648614E+03   -3.5060799E+04    3.8121334E+05   -6.1648642E+03    3.8544434E+05
   -3.58   300.000    1.082E+02    3.9409538E+05    7.5102393E+03   -3.1838009E+04    3.9325882E+05   -7.5102422E+03    3.9409538E+05
   -3.57   300.000    1.071E+02    4.0295434E+05    8.8843310E+03   -2.8792316E+04    4.0355828E+05   -8.8843339E+03    4.0295434E+05
   -3.56   300.000    1.060E+02    4.1098560E+05    1.0145610E+04   -2.6398329E+04    4.1028601E+05   -1.0145613E+04    4.1098561E+05
   -3.55   300.000    1.048E+02    4.1706169E+05    1.1097986E+04   -2.4980045E+04    4.1261018E+05   -1.1097989E+04    4.1706169E+05
   -3.54   300.000    1.037E+02    4.2022103E+05    1.1550509E+04   -2.4623498E+04    4.1088341E+05   -1.1550512E+04    4.2022104E+05
   -3.53   300.000    1.025E+02    4.2003648E+05    1.1387681E+04   -2.5143742E+04    4.0639167E+05   -1.1387682E+04    4.2003649E+05
   -3.52   300.000    1.014E+02    4.1691672E+05    1.0624762E+04   -2.6141635E+04    4.0084036E+05   -1.0624764E+04    4.1691674E+05
   -3.51   300.000    1.003E+02    4.1208950E+05    9.4164661E+03   -2.7152037E+04    3.9582376E+05   -9.4164675E+03    4.1208951E+05
   -3.50   300.000    9.913E+01    4.0721184E+05    8.0027028E+03   -2.7825524E+04    3.9246001E+05   -8.0027041E+03    4.0721185E+05
   -3.49   300.000    9.800E+01    4.0382132E+05    6.6178741E+03   -2.8036927E+04    3.9128524E+05   -6.6178755E+03    4.0382133E+05
   -3.48   300.000    9.688E+01    4.0291028E+05    5.4191191E+03   -2.7851744E+04    3.9238846E+05   -5.4191205E+03    4.0291029E+05
   -3.47   300.000    9.577E+01    4.0477032E+05    4.4683568E+03   -2.7403178E+04    3.9562649E+05   -4.4683582E+03    4.0477033E+05
   -3.46   300.000    9.466E+01    4.0908911E+05    3.7553839E+03   -2.6805741E+04    4.0073352E+05   -3.7553853E+03    4.0908912E+05
   -3.45   300.000    9.355E+01    4.1519154E+05    3.2278758E+03   -2.6174971E+04    4.0730434E+05   -3.2278771E+03    4.1519154E+05
   -3.44   300.000    9.244E+01    4.2230018E+05    2.8114309E+03   -2.5706613E+04    4.1478177E+05   -2.8114322E+03    4.2230018E+05
   -3.43   300.000    9.132E+01    4.2971550E+05    2.4266483E+03   -2.5704437E+04    4.2253489E+05   -2.4266497E+03    4.2971550E+05
   -3.42   300.000    9.020E+01    4.3687688E+05    2.0158059E+03   -2.6488329E+04    4.2998524E+05   -2.0158076E+03    4.3687688E+05
   -3.41   300.000    8.907E+01    4.4335054E+05    1.5757654E+03   -2.8232111E+04    4.3669587E+05   -1.5757677E+03    4.4335053E+05
   -3.40   300.000    8.794E+01    4.4882434E+05    1.1702087E+03   -3.0859873E+04    4.4237999E+05   -1.1702116E+03    4.4882433E+05
   -3.39   300.000    8.678E+01    4.5311818E+05    8.9626700E+02   -3.4069968E+04    4.4682770E+05   -8.9627048E+02    4.5311818E+05
   -3.38   300.000    8.561E+01    4.5614086E+05    8.1872374E+02   -3.7429475E+04    4.4979128E+05   -8.1872766E+02    4.5614086E+05
   -3.37   300.000    8.441E+01    4.5777792E+05    9.1669711E+02   -4.0463818E+04    4.5093045E+05   -9.1670127E+02    4.5777791E+05
   -3.36   300.000    8.318E+01    4.5781669E+05    1.0778274E+03   -4.2744434E+04    4.4992368E+05   -1.0778317E+03    4.5781668E+05
   -3.35   300.000    8.192E+01    4.5602428E+05    1.1419655E+03   -4.3991132E+04    4.4671849E+05   -1.1419697E+03    4.5602427E+05
   -3.34   300.000    8.061E+01    4.5236563E+05    9.6850781E+02   -4.4150249E+04    4.4172610E+05   -9.6851206E+02    4.5236563E+05
   -3.33   300.000    7.925E+01    4.4721443E+05    4.8934101E+02   -4.3400257E+04    4.3579153E+05   -4.8934534E+02    4.4721442E+05
   -3.32   300.000    7.784E+01    4.4139945E+05   -2.7956686E+02   -4.2087790E+04    4.2999912E+05    2.7956230E+02    4.4139943E+05
   -3.31   300.000    7.637E+01    4.3605555E+05   -1.2637478E+03   -4.0634600E+04    4.2552100E+05    1.2637429E+03    4.3605554E+05
   -3.30   300.000    7.483E+01    4.3238000E+05   -2.3628612E+03   -3.9434061E+04    4.2358074E+05    2.3628558E+03    4.3237999E+05
   -3.29   300.000    7.324E+01    4.3140206E+05   -3.4635519E+03   -3.8721294E+04    4.2536883E+05    3.4635460E+03    4.3140205E+05
   -3.28   300.000    7.158E+01    4.3378582E+05   -4.4326022E+03   -3.8436203E+04    4.3172635E+05    4.4325960E+03    4.3378581E+05
   -3.27   300.000    6.985E+01    4.3965062E+05   -5.1138337E+03   -3.8173883E+04    4.4266210E+05    5.1138272E+03    4.3965061E+05
   -3.26   300.000    6.807E+01    4.4846530E+05   -5.3548618E+03   -3.7310596E+04    4.5703525E+05    5.3548553E+03    4.4846529E+05
   -3.25   300.000    6.623E+01    4.5913551E+05   -5.0701100E+03   -3.5276576E+04    4.7273562E+05    5.0701039E+03    4.5913551E+05
   -3.24   300.000    6.432E+01    4.7032559E+05   -4.3092253E+03   -3.1821173E+04    4.8737959E+05    4.3092198E+03    4.7032559E+05
   -3.23   300.000    6.236E+01    4.8087130E+05   -3.2713572E+03   -2.7104879E+04    4.9915135E+05    3.2713525E+03    4.8087130E+05
   -3.22   300.000    6.033E+01    4.9003652E+05   -2.2308824E+03   -2.1586350E+04    5.0728837E+05    2.2308789E+03    4.9003653E+05
   -3.21   300.000    5.823E+01    4.9749056E+05   -1.4157374E+03   -1.5820532E+04    5.1197799E+05    1.4157352E+03    4.9749057E+05
   -3.20   300.000    5.608E+01    5.0312771E+05   -9.2333057E+02   -1.0294040E+04    5.1387878E+05    9.2332988E+02    5.0312772E+05
   -3.19   300.000    5.387E+01    5.0695683E+05   -7.1761172E+02   -5.3384547E+03    5.1369248E+05    7.1761270E+02    5.0695684E+05
   -3.18   300.000    5.160E+01    5.0915562E+05   -6.8032492E+02   -1.1165742E+03    5.1203071E+05    6.8032751E+02    5.0915563E+05
   -3.17   300.000    4.930E+01    5.1017073E+05   -6.6666257E+02    2.3266251E+03    5.0949781E+05    6.6666656E+02    5.1017074E+05
   -3.16   300.000    4.699E+01    5.1068041E+05   -5.4207056E+02    4.9798954E+03    5.0676692E+05    5.4207557E+02    5.1068042E+05
   -3.15   300.000    4.469E+01    5.1137100E+05   -2.0330860E+02    6.8016702E+03    5.0449931E+05    2.0331422E+02    5.1137101E+05
   -3.14   300.000    4.242E+01    5.1265286E+05    4.1080452E+02    7.7062741E+03    5.0310569E+05   -4.1079870E+02    5.1265285E+05
   -3.13   300.000    4.022E+01    5.1448239E+05    1.3138801E+03    7.5898140E+03    5.0247907E+05   -1.3138744E+03    5.1448239E+05
   -3.12   300.000    3.810E+01    5.1637132E+05    2.4606151E+03    6.3698220E+03    5.0189972E+05   -2.4606098E+03    5.1637131E+05
   -3.11   300.000    3.608E+01    5.1756870E+05    3.7288966E+03    4.0203141E+03    5.0025764E+05   -3.7288919E+03    5.1756870E+05
   -3.10   300.000    3.417E+01    5.1734754E+05    4.9219020E+03    5.9258939E+02    4.9653701E+05   -4.9218980E+03    5.1734754E+05
   -3.09   300.000    3.238E+01    5.1529441E+05    5.8225428E+03   -3.7841802E+03    4.9031270E+05   -5.8225396E+03    5.1529441E+05
   -3.08   300.000    3.070E+01    5.1149050E+05    6.2910337E+03   -8.9214272E+03    4.8199312E+05   -6.2910313E+03    5.1149050E+05
   -3.07   300.000    2.913E+01    5.0648757E+05    6.3403166E+03   -1.4590561E+04    4.7267519E+05   -6.3403151E+03    5.0648756E+05
   -3.06   300.000    2.767E+01    5.0103904E+05    6.1232700E+03   -2.0509904E+04    4.6365783E+05   -6.1232693E+03    5.0103904E+05
   -3.05   300.000    2.631E+01    4.9568860E+05    5.8383418E+03   -2.6285128E+04    4.5586183E+05   -5.8383419E+03    4.9568859E+05
   -3.04   300.000    2.505E+01    4.9046788E+05    5.6301790E+03   -3.1359270E+04    4.4950540E+05   -5.6301800E+03    4.9046788E+05
   -3.03   300.000    2.388E+01    4.8491456E+05    5.5545610E+03   -3.5091880E+04    4.4421877E+05   -5.5545631E+03    4.8491456E+05
   -3.02   300.000    2.279E+01    4.7837274E+05    5.6133004E+03   -3.7024797E+04    4.3945164E+05   -5.6133034E+03    4.7837274E+05
   -3.01   300.000    2.178E+01    4.7032599E+05    5.8099350E+03   -3.7183688E+04    4.3483879E+05   -5.8099389E+03    4.7032599E+05
   -3.00   300.000    2.084E+01    4.6053426E+05    6.1705281E+03   -3.6127135E+04    4.3028095E+05   -6.1705328E+03    4.6053426E+05
   -2.99   300.000    1.996E+01    4.4893625E+05    6.7155222E+03   -3.4634192E+04    4.2573434E+05   -6.7155274E+03    4.4893625E+05
   -2.98   300.000    1.913E+01    4.3545358E+05    7.4149274E+03   -3.3277143E+04    4.2088599E+05   -7.4149328E+03    4.3545358E+05
   -2.97   300.000    1.836E+01    4.1988874E+05    8.1665217E+03   -3.2221089E+04    4.1496404E+05   -8.1665270E+03    4.1988873E+05
   -2.96   300.000    1.763E+01    4.0202979E+05    8.8134441E+03   -3.1323355E+04    4.0689700E+05   -8.8134491E+03    4.0202979E+05
   -2.95   300.000    1.694E+01    3.8190363E+05    9.1933263E+03   -3.0347224E+04    3.9582578E+05   -9.1933310E+03    3.8190362E+05
   -2.94   300.000    1.629E+01    3.5999311E+05    9.1957133E+03   -2.9116839E+04    3.8164749E+05   -9.1957177E+03    3.5999310E+05
   -2.93   300.000    1.567E+01    3.3726374E+05    8.7996748E+03   -2.7584829E+04    3.6516348E+05   -8.7996790E+03    3.3726373E+05
   -2.92   300.000    1.509E+01    3.1497858E+05    8.0743107E+03   -2.5845821E+04    3.4771454E+05   -8.0743149E+03    3.1497857E+05
   -2.91   300.000    1.454E+01    2.9440119E+05    7.1472971E+03   -2.4096468E+04    3.3061840E+05   -7.1473014E+03    2.9440118E+05
   -2.90   300.000    1.402E+01    2.7653891E+05    6.1629418E+03   -2.2534446E+04    3.1483048E+05   -6.1629460E+03    2.7653890E+05
   -2.89   300.000    1.353E+01    2.6203956E+05    5.2496227E+03   -2.1244840E+04    3.0095977E+05   -5.2496267E+03    2.6203955E+05
   -2.88   300.000    1.306E+01    2.5124166E+05    4.5035039E+03   -2.0159830E+04    2.8943638E+05   -4.5035074E+03    2.5124165E+05
   -2.87   300.000    1.261E+01    2.4427298E+05    3.9852394E+03   -1.9126067E+04    2.8057608E+05   -3.9852421E+03    2.4427298E+05
   -2.86   300.000    1.219E+01    2.4107484E+05    3.7254001E+03   -1.8017841E+04    2.7447780E+05   -3.7254019E+03    2.4107484E+05
   -2.85   300.000    1.179E+01    2.4131439E+05    3.7341969E+03   -1.6803392E+04    2.7086942E+05   -3.7341978E+03    2.4131439E+05
   -2.84   300.000    1.142E+01    2.4426781E+05    4.0048037E+03   -1.5533920E+04    2.6906782E+05   -4.0048038E+03    2.4426781E+05
   -2.83   300.000    1.107E+01    2.4880453E+05    4.5021390E+03   -1.4297651E+04    2.6815513E+05   -4.5021383E+03    2.4880453E+05
   -2.82   300.000    1.074E+01    2.5355186E+05    5.1506881E+03   -1.3201145E+04    2.6732216E+05   -5.1506869E+03    2.5355186E+05
   -2.81   300.000    1.042E+01    2.5723017E+05    5.8458212E+03   -1.2402069E+04    2.6619079E+05   -5.8458197E+03    2.5723017E+05
   -2.80   300.000    1.013E+01    2.5904076E+05    6.4871343E+03   -1.2147035E+04    2.6492510E+05   -6.4871328E+03    2.5904076E+05
   -2.79   300.000    9.847E+00    2.5889250E+05    7.0030860E+03   -1.2742917E+04    2.6407499E+05   -7.0030847E+03    2.5889250E+05
   -2.78   300.000    9.577E+00    2.5731129E+05    7.3487941E+03   -1.4462705E+04    2.6426127E+05   -7.3487933E+03    2.5731129E+05
   -2.77   300.000    9.317E+00    2.5512533E+05    7.4955717E+03   -1.7461525E+04    2.6590797E+05   -7.4955716E+03    2.5512533E+05
   -2.76   300.000    9.065E+00    2.5319765E+05    7.4366342E+03   -2.1739401E+04    2.6917564E+05   -7.4366350E+03    2.5319765E+05
   -2.75   300.000    8.822E+00    2.5234989E+05    7.2042806E+03   -2.7109370E+04    2.7407918E+05   -7.2042824E+03    2.5234989E+05
   -2.74   300.000    8.585E+00    2.5336036E+05    6.8738298E+03   -3.3153072E+04    2.8063807E+05   -6.8738326E+03    2.5336036E+05
   -2.73   300.000    8.354E+00    2.5686314E+05    6.5345248E+03   -3.9229323E+04    2.8890009E+05   -6.5345286E+03    2.5686314E+05
   -2.72   300.000    8.125E+00    2.6314650E+05    6.2300367E+03   -4.4594198E+04    2.9877699E+05   -6.2300413E+03    2.6314650E+05
   -2.71   300.000    7.898E+00    2.7198578E+05    5.9077164E+03   -4.8582456E+04    3.0978530E+05   -5.9077216E+03    2.7198578E+05
   -2.70   300.000    7.670E+00    2.8260964E+05    5.4307468E+03   -5.0729944E+04    3.2090747E+05   -5.4307524E+03    2.8260964E+05
   -2.69   300.000    7.440E+00    2.9379597E+05    4.6624766E+03   -5.0772485E+04    3.3073486E+05   -4.6624821E+03    2.9379597E+05
   -2.68   300.000    7.209E+00    3.0405408E+05    3.5633977E+03   -4.8572504E+04    3.3783788E+05   -3.5634029E+03    3.0405408E+05
   -2.67   300.000    6.977E+00    3.1187469E+05    2.2229707E+03   -4.4091493E+04    3.4115146E+05   -2.2229754E+03    3.1187470E+05
   -2.66   300.000    6.745E+00    3.1602613E+05    8.0403011E+02   -3.7495815E+04    3.4019024E+05   -8.0403421E+02    3.1602613E+05
   -2.65   300.000    6.514E+00    3.1579685E+05   -5.4802154E+02   -2.9345388E+04    3.3502437E+05    5.4801802E+02    3.1579686E+05
   -2.64   300.000    6.286E+00    3.1104240E+05   -1.7613258E+03   -2.0645938E+04    3.2606539E+05    1.7613229E+03    3.1104241E+05
   -2.63   300.000    6.061E+00    3.0200995E+05   -2.8337768E+03   -1.2563855E+04    3.1379068E+05    2.8337745E+03    3.0200996E+05
   -2.62   300.000    5.842E+00    2.8908178E+05   -3.7898014E+03   -5.9112362E+03    2.9853024E+05    3.7897998E+03    2.8908178E+05
   -2.61   300.000    5.628E+00    2.7260683E+05   -4.6309978E+03   -8.0987541E+02    2.8039276E+05    4.6309970E+03    2.7260683E+05
   -2.60   300.000    5.422E+00    2.5288525E+05   -5.3114010E+03    3.1653310E+03    2.5936717E+05    5.3114009E+03    2.5288525E+05
   -2.59   300.000    5.226E+00    2.3027379E+05   -5.7551381E+03    6.5092472E+03    2.3556030E+05    5.7551388E+03    2.3027380E+05
   -2.58   300.000    5.040E+00    2.0533596E+05   -5.9017597E+03    9.4038624E+03    2.0943668E+05    5.9017610E+03    2.0533596E+05
   -2.57   300.000    4.867E+00    1.7893761E+05   -5.7412197E+03    1.1697009E+04    1.8190848E+05    5.7412215E+03    1.7893761E+05
   -2.56   300.000    4.710E+00    1.5220225E+05   -5.3167256E+03    1.3146682E+04    1.5421070E+05    5.3167278E+03    1.5220225E+05
   -2.55   300.000    4.569E+00    1.2632650E+05   -4.7048201E+03    1.3655025E+04    1.2763189E+05    4.7048224E+03    1.2632650E+05
   -2.54   300.000    4.446E+00    1.0235550E+05   -3.9920389E+03    1.3322502E+04    1.0325826E+05    3.9920412E+03    1.0235550E+05
   -2.53   300.000    4.341E+00    8.1031094E+04   -3.2581624E+03    1.2360118E+04    8.1847374E+04    3.2581645E+03    8.1031093E+04
   -2.52   300.000    4.254E+00    6.2751586E+04   -2.5663317E+03    1.0989854E+04    6.3827029E+04    2.5663335E+03    6.2751586E+04
   -2.51   300.000    4.182E+00    4.7611861E+04   -1.9581505E+03    9.4056438E+03    4.9351329E+04    1.9581521E+03    4.7611861E+04
   -2.50   300.000    4.124E+00    3.5476823E+04   -1.4533403E+03    7.7765951E+03    3.8371738E+04    1.4533416E+03    3.5476822E+04
   -2.49   300.000    4.075E+00    2.6058527E+04   -1.0535115E+03    6.2490137E+03    3.0716909E+04    1.0535125E+03    2.6058526E+04
   -2.48   300.000    4.033E+00    1.8985017E+04   -7.4827569E+02    4.9342470E+03    2.6177007E+04    7.4827654E+02    1.8985016E+04
   -2.47   300.000    3.994E+00    1.3857803E+04   -5.2138691E+02    3.8964873E+03    2.4576690E+04    5.2138768E+02    1.3857802E+04
   -2.46   300.000    3.954E+00    1.0296319E+04   -3.5535854E+02    3.1528163E+03    2.5816990E+04    3.5535932E+02    1.0296318E+04
   -2.45   300.000    3.909E+00    7.9666908E+03   -2.3416874E+02    2.6835341E+03    2.9869014E+04    2.3416960E+02    7.9666899E+03
   -2.44   300.000    3.857E+00    6.5941849E+03   -1.4445251E+02    2.4442169E+03    3.6709365E+04    1.4445352E+02    6.5941840E+03
   -2.43   300.000    3.792E+00    5.9636629E+03   -7.5826114E+01    2.3745317E+03    4.6202733E+04    7.5827353E+01    5.9636620E+03
   -2.42   300.000    3.714E+00    5.9160672E+03   -2.0856085E+01    2.4050362E+03    5.7964178E+04    2.0857598E+01    5.9160664E+03
   -2.41   300.000    3.621E+00    6.3479161E+03    2.5126166E+01    2.4655777E+03    7.1259668E+04   -2.5124346E+01    6.3479153E+03
   -2.40   300.000    3.512E+00    7.2146193E+03    6.4423076E+01    2.4959438E+03    8.5001855E+04   -6.4420944E+01    7.2146187E+03
   -2.39   300.000    3.387E+00    8.5314525E+03    9.7629204E+01    2.4549664E+03    9.7860561E+04   -9.7626798E+01    8.5314521E+03
   -2.38   300.000    3.248E+00    1.0364276E+04    1.2440768E+02    2.3241916E+03    1.0846972E+05   -1.2440509E+02    1.0364276E+04
   -2.37   300.000    3.094E+00    1.2806016E+04    1.4429964E+02    2.1068702E+03    1.1569877E+05   -1.4429699E+02    1.2806017E+04
   -2.36   300.000    2.925E+00    1.5939004E+04    1.5765350E+02    1.8257574E+03    1.1892039E+05   -1.5765093E+02    1.5939004E+04
   -2.35   300.000    2.740E+00    1.9786084E+04    1.6635323E+02    1.5203066E+03    1.1813976E+05   -1.6635083E+02    1.9786085E+04
   -2.34   300.000    2.541E+00    2.4260181E+04    1.7353071E+02    1.2403837E+03    1.1389081E+05   -1.7352849E+02    2.4260182E+04
   -2.33   300.000    2.327E+00    2.9131780E+04    1.8221314E+02    1.0348819E+03    1.0699563E+05   -1.8221107E+02    2.9131782E+04
   -2.32   300.000    2.103E+00    3.4034919E+04    1.9409374E+02    9.3763266E+02    9.8371408E+04   -1.9409173E+02    3.4034921E+04
   -2.31   300.000    1.872E+00    3.8517964E+04    2.0927457E+02    9.5559905E+02    8.8920734E+04   -2.0927256E+02    3.8517966E+04
   -2.30   300.000    1.640E+00    4.2125660E+04    2.2650102E+02    1.0646101E+03    7.9418596E+04   -2.2649902E+02    4.2125663E+04
   -2.29   300.000    1.411E+00    4.4488343E+04    2.4327354E+02    1.2162691E+03    7.0393336E+04   -2.4327160E+02    4.4488346E+04
   -2.28   300.000    1.192E+00    4.5395966E+04    2.5613524E+02    1.3551285E+03    6.2091553E+04   -2.5613344E+02    4.5395969E+04
   -2.27   300.000    9.856E-01    4.4842856E+04    2.6159242E+02    1.4382307E+03    5.4559427E+04   -2.6159084E+02    4.4842858E+04
   -2.26   300.000    7.960E-01    4.3039905E+04    2.5735627E+02    1.4461631E+03    4.7778670E+04   -2.5735500E+02    4.3039907E+04
   -2.25   300.000    6.255E-01    4.0397900E+04    2.4316585E+02    1.3814826E+03    4.1780050E+04   -2.4316495E+02    4.0397901E+04
   -2.24   300.000    4.758E-01    3.7480752E+04    2.2080477E+02    1.2600074E+03    3.6694849E+04   -2.2080429E+02    3.7480754E+04
   -2.23   300.000    3.469E-01    3.4924329E+04    1.9343947E+02    1.1022403E+03    3.2744330E+04   -1.9343946E+02    3.4924332E+04
   -2.22   300.000    2.379E-01    3.3333712E+04    1.6463422E+02    9.2698292E+02    3.0191239E+04   -1.6463475E+02    3.3333716E+04
   -2.21   300.000    1.464E-01    3.3193460E+04    1.3740787E+02    7.4551954E+02    2.9281717E+04   -1.3740897E+02    3.3193465E+04
   -2.20   300.000    6.932E-02    3.4823239E+04    1.1362546E+02    5.5619024E+02    3.0200023E+04   -1.1362715E+02    3.4823246E+04
   -2.19   300.000    2.957E-03    3.8386171E+04    9.3864949E+01    3.4312691E+02    3.3050200E+04   -9.3867199E+01    3.8386179E+04
   -2.18   300.000   -5.621E-02    4.3933039E+04    7.7686766E+01    8.4858245E+01    3.7865871E+04   -7.7689474E+01    4.3933049E+04
   -2.17   300.000   -1.114E-01    5.1456832E+04    6.4085893E+01   -2.2598854E+02    4.4634414E+04   -6.4088883E+01    5.1456843E+04
   -2.16   300.000   -1.652E-01    6.0934156E+04    5.1905324E+01   -5.6258730E+02    5.3317039E+04   -5.1908353E+01    6.0934169E+04
   -2.15   300.000   -2.198E-01    7.2335728E+04    4.0092315E+01   -8.6341863E+02    6.3859440E+04   -4.0095111E+01    7.2335742E+04
   -2.14   300.000   -2.765E-01    8.5604258E+04    2.7789237E+01   -1.0607139E+03    7.6206068E+04   -2.7791558E+01    8.5604273E+04
   -2.13   300.000   -3.362E-01    1.0062546E+05    1.4328533E+01   -1.1201027E+03    9.0327525E+04   -1.4330234E+01    1.0062548E+05
   -2.12   300.000   -3.996E-01    1.1722872E+05   -7.5949587E-01   -1.0625012E+03    1.0623704E+05    7.5843717E-01    1.1722874E+05
   -2.11   300.000   -4.666E-01    1.3522390E+05   -1.7650494E+01   -9.5700184E+02    1.2394529E+05    1.7650008E+01    1.3522392E+05
   -2.10   300.000   -5.374E-01    1.5444346E+05   -3.6087990E+01   -8.9206782E+02    1.4334077E+05    3.6087971E+01    1.5444348E+05
   -2.09   300.000   -6.118E-01    1.7477263E+05   -5.5377038E+01   -9.3411010E+02    1.6408041E+05    5.5377389E+01    1.7477265E+05
   -2.08   300.000   -6.901E-01    1.9618858E+05   -7.4699421E+01   -1.0865772E+03    1.8561528E+05    7.4700061E+01    1.9618860E+05
   -2.07   300.000   -7.721E-01    2.1879568E+05   -9.3808872E+01   -1.2777921E+03    2.0736330E+05    9.3809710E+01    2.1879571E+05
   -2.06   300.000   -8.582E-01    2.4277900E+05   -1.1392416E+02   -1.4001672E+03    2.2889462E+05    1.1392504E+02    2.4277903E+05
   -2.05   300.000   -9.488E-01    2.6826474E+05   -1.3839329E+02   -1.3789350E+03    2.5002569E+05    1.3839389E+02    2.6826477E+05
   -2.04   300.000   -1.044E+00    2.9524527E+05   -1.7254203E+02   -1.2140067E+03    2.7089730E+05    1.7254184E+02    2.9524530E+05
   -2.03   300.000   -1.144E+00    3.2371138E+05   -2.2192608E+02   -9.6209249E+02    2.9214702E+05    2.2192443E+02    3.2371141E+05
   -2.02   300.000   -1.250E+00    3.5384603E+05   -2.8805431E+02   -6.8041722E+02    3.1503525E+05    2.8805055E+02    3.5384607E+05
   -2.01   300.000   -1.360E+00    3.8595788E+05   -3.6176435E+02   -3.8495619E+02    3.4118733E+05    3.6175805E+02    3.8595793E+05
   -2.00   300.000   -1.475E+00    4.2009760E+05   -4.1821687E+02   -5.9854682E+01    3.7185689E+05    4.1820785E+02    4.2009765E+05
   -1.99   300.000   -1.596E+00    4.5569785E+05   -4.2127967E+02    2.9682431E+02    4.0710818E+05    4.2126802E+02    4.5569791E+05
   -1.98   300.000   -1.721E+00    4.9160633E+05   -3.4110463E+02    6.3699861E+02    4.4550492E+05    3.4109062E+02    4.9160640E+05
   -1.97   300.000   -1.851E+00    5.2653657E+05   -1.7512043E+02    8.5728024E+02    4.8453795E+05    1.7510436E+02    5.2653664E+05
   -1.96   300.000   -1.986E+00    5.5960169E+05    4.5546793E+01    8.1315461E+02    5.2146337E+05   -4.5564607E+01    5.5960177E+05
   -1.95   300.000   -2.123E+00    5.9053355E+05    2.7011366E+02    3.5602806E+02    5.5405692E+05   -2.7013289E+02    5.9053362E+05
   -1.94   300.000   -2.264E+00    6.1953112E+05    4.4836862E+02   -5.8443958E+02    5.8111340E+05   -4.4838890E+02    6.1953120E+05
   -1.93   300.000   -2.408E+00    6.4711113E+05    5.4053743E+02   -1.9028982E+03    6.0275695E+05   -5.4055833E+02    6.4711121E+05
   -1.92   300.000   -2.554E+00    6.7426657E+05    5.1642899E+02   -3.3092852E+03    6.2049278E+05   -5.1645004E+02    6.7426665E+05
   -1.91   300.000   -2.702E+00    7.0267559E+05    3.5489942E+02   -4.4647395E+03    6.3683260E+05   -3.5492008E+02    7.0267567E+05
   -1.90   300.000   -2.852E+00    7.3441228E+05    5.0714094E+01   -5.1653843E+03    6.5456720E+05   -5.0733679E+01    7.3441236E+05
   -1.89   300.000   -3.006E+00    7.7100542E+05   -3.7312436E+02   -5.4230452E+03    6.7605801E+05    3.7310665E+02    7.7100550E+05
   -1.88   300.000   -3.165E+00    8.1232427E+05   -8.5479249E+02   -5.4142994E+03    7.0286928E+05    8.5477738E+02    8.1232434E+05
   -1.87   300.000   -3.328E+00    8.5607149E+05   -1.2948496E+03   -5.3816656E+03    7.3568391E+05    1.2948375E+03    8.5607155E+05
   -1.86   300.000   -3.497E+00    8.9835308E+05   -1.5772200E+03   -5.5483312E+03    7.7417945E+05    1.5772107E+03    8.9835314E+05
   -1.85   300.000   -3.672E+00    9.3501933E+05   -1.6040564E+03   -6.0517213E+03    8.1676385E+05    1.6040491E+03    9.3501938E+05
   -1.84   300.000   -3.852E+00    9.6296404E+05   -1.3272952E+03   -6.9055090E+03    8.6056689E+05    1.3272888E+03    9.6296409E+05
   -1.83   300.000   -4.038E+00    9.8085153E+05   -7.6793101E+02   -8.0103241E+03    9.0214767E+05    7.6792452E+02    9.8085157E+05
   -1.82   300.000   -4.226E+00    9.8930902E+05   -1.9470371E+01   -9.1909492E+03    9.3875300E+05    1.9463023E+01    9.8930906E+05
   -1.81   300.000   -4.417E+00    9.9075266E+05    7.7725660E+02   -1.0217101E+04    9.6927264E+05   -7.7726505E+02    9.9075271E+05
   -1.80   300.000   -4.609E+00    9.8883351E+05    1.4896150E+03   -1.0832565E+04    9.9413041E+05   -1.4896244E+03    9.8883356E+05
   -1.79   300.000   -4.801E+00    9.8758685E+05    2.0400429E+03   -1.0855272E+04    1.0143366E+06   -2.0400529E+03    9.8758690E+05
   -1.78   300.000   -4.992E+00    9.9068737E+05    2.3927002E+03   -1.0311619E+04    1.0307401E+06   -2.3927102E+03    9.9068743E+05
   -1.77   300.000   -5.184E+00    1.0011168E+06    2.4945762E+03   -9.4625351E+03    1.0441147E+06   -2.4945855E+03    1.0011169E+06
   -1.76   300.000   -5.377E+00    1.0210385E+06    2.2702353E+03   -8.6533585E+03    1.0556921E+06   -2.2702429E+03    1.0210386E+06
   -1.75   300.000   -5.571E+00    1.0514913E+06    1.7273538E+03   -8.1054113E+03    1.0673846E+06   -1.7273588E+03    1.0514914E+06
   -1.74   300.000   -5.768E+00    1.0919115E+06    1.0627046E+03   -7.8179904E+03    1.0814111E+06   -1.0627062E+03    1.0919116E+06
   -1.73   300.000   -5.968E+00    1.1398577E+06    6.0307824E+02   -7.6229162E+03    1.0995824E+06   -6.0307648E+02    1.1398578E+06
   -1.72   300.000   -6.173E+00    1.1911836E+06    5.9727854E+02   -7.3114590E+03    1.1226056E+06   -5.9727430E+02    1.1911837E+06
   -1.71   300.000   -6.383E+00    1.2405948E+06    1.0484940E+03   -6.7404990E+03    1.1496182E+06   -1.0484887E+03    1.2405949E+06
   -1.70   300.000   -6.597E+00    1.2824644E+06    1.7124862E+03   -5.8758359E+03    1.1781751E+06   -1.7124817E+03    1.2824645E+06
   -1.69   300.000   -6.815E+00    1.3118755E+06    2.2273579E+03   -4.7826091E+03    1.2049328E+06   -2.2273558E+03    1.3118756E+06
   -1.68   300.000   -7.035E+00    1.3258451E+06    2.2885264E+03   -3.6063146E+03    1.2268640E+06   -2.2885277E+03    1.3258452E+06
   -1.67   300.000   -7.255E+00    1.3244112E+06    1.8014979E+03   -2.5670712E+03    1.2422667E+06   -1.8015028E+03    1.3244112E+06
   -1.66   300.000   -7.476E+00    1.3109976E+06    9.3969612E+02   -1.9185631E+03    1.2509984E+06   -9.3970414E+02    1.3109977E+06
   -1.65   300.000   -7.697E+00    1.2917026E+06    5.2779783E+01   -1.8279771E+03    1.2541465E+06   -5.2789880E+01    1.2917026E+06
   -1.64   300.000   -7.917E+00    1.2737239E+06   -5.2721817E+02   -2.2573912E+03    1.2536133E+06    5.2720701E+02    1.2737240E+06
   -1.63   300.000   -8.137E+00    1.2633810E+06   -6.5041368E+02   -2.9934008E+03    1.2516399E+06    6.5040226E+02    1.2633811E+06
   -1.62   300.000   -8.358E+00    1.2642650E+06   -3.9027117E+02   -3.8437321E+03    1.2501777E+06    3.9026022E+02    1.2642651E+06
   -1.61   300.000   -8.582E+00    1.2763139E+06    3.7379358E+01   -4.8345792E+03    1.2504284E+06   -3.7388923E+01    1.2763140E+06
   -1.60   300.000   -8.810E+00    1.2964075E+06    4.1171701E+02   -6.2090861E+03    1.2528188E+06   -4.1172384E+02    1.2964076E+06
   -1.59   300.000   -9.043E+00    1.3199644E+06    6.1909797E+02   -8.1715034E+03    1.2570173E+06   -6.1910043E+02    1.3199645E+06
   -1.58   300.000   -9.282E+00    1.3422723E+06    6.9130525E+02   -1.0558796E+04    1.2615106E+06   -6.9130197E+02    1.3422724E+06
   -1.57   300.000   -9.528E+00    1.3591310E+06    7.6980996E+02   -1.2782470E+04    1.2632158E+06   -7.6980039E+02    1.3591311E+06
   -1.56   300.000   -9.779E+00    1.3676327E+06    1.0234114E+03   -1.4205902E+04    1.2582778E+06   -1.0233961E+03    1.3676328E+06
   -1.55   300.000   -1.003E+01    1.3675041E+06    1.5556601E+03   -1.4658802E+04    1.2442745E+06   -1.5556407E+03    1.3675043E+06
   -1.54   300.000   -1.029E+01    1.3619251E+06    2.3359628E+03   -1.4592681E+04    1.2223496E+06   -2.3359414E+03    1.3619252E+06
   -1.53   300.000   -1.056E+01    1.3565462E+06    3.1787788E+03   -1.4755361E+04    1.1974274E+06   -3.1787575E+03    1.3565463E+06
   -1.52   300.000   -1.082E+01    1.3570195E+06    3.7876816E+03   -1.5728945E+04    1.1762108E+06   -3.7876619E+03    1.3570196E+06
   -1.51   300.000   -1.108E+01    1.3666197E+06    3.8678270E+03   -1.7687977E+04    1.1643585E+06   -3.8678095E+03    1.3666198E+06
   -1.50   300.000   -1.135E+01    1.3851220E+06    3.2806278E+03   -2.0429207E+04    1.1643990E+06   -3.2806126E+03    1.3851221E+06
   -1.49   300.000   -1.161E+01    1.4090564E+06    2.1762448E+03   -2.3516983E+04    1.1751278E+06   -2.1762315E+03    1.4090565E+06
   -1.48   300.000   -1.189E+01    1.4330259E+06    1.0090331E+03   -2.6397651E+04    1.1925511E+06   -1.0090212E+03    1.4330260E+06
   -1.47   300.000   -1.216E+01    1.4516763E+06    3.6064698E+02   -2.8481622E+04    1.2118970E+06   -3.6063598E+02    1.4516764E+06
   -1.46   300.000   -1.243E+01    1.4616198E+06    6.3117450E+02   -2.9309910E+04    1.2297390E+06   -6.3116402E+02    1.4616199E+06
   -1.45   300.000   -1.271E+01    1.4625769E+06    1.8195844E+03   -2.8796142E+04    1.2453622E+06   -1.8195741E+03    1.4625769E+06
   -1.44   300.000   -1.299E+01    1.4574178E+06    3.5605740E+03   -2.7283824E+04    1.2609718E+06   -3.5605634E+03    1.4574178E+06
   -1.43   300.000   -1.328E+01    1.4511811E+06    5.3460828E+03   -2.5261165E+04    1.2806392E+06   -5.3460713E+03    1.4511811E+06
   -1.42   300.000   -1.357E+01    1.4494117E+06    6.7500149E+03   -2.3025834E+04    1.3082581E+06   -6.7500018E+03    1.4494118E+06
   -1.41   300.000   -1.386E+01    1.4565173E+06    7.5621623E+03   -2.0697121E+04    1.3454275E+06   -7.5621468E+03    1.4565174E+06
   -1.40   300.000   -1.416E+01    1.4748247E+06    7.8166133E+03   -1.8501420E+04    1.3903323E+06   -7.8165943E+03    1.4748248E+06
   -1.39   300.000   -1.446E+01    1.5044129E+06    7.7189422E+03   -1.6911347E+04    1.4381473E+06   -7.7189189E+03    1.5044129E+06
   -1.38   300.000   -1.477E+01    1.5434290E+06    7.5165565E+03   -1.6466197E+04    1.4828715E+06   -7.5165283E+03    1.5434291E+06
   -1.37   300.000   -1.508E+01    1.5888278E+06    7.3842491E+03   -1.7487244E+04    1.5198518E+06   -7.3842163E+03    1.5888278E+06
   -1.36   300.000   -1.540E+01    1.6374971E+06    7.3584813E+03   -1.9924568E+04    1.5475971E+06   -7.3584454E+03    1.6374972E+06
   -1.35   300.000   -1.572E+01    1.6872671E+06    7.3121225E+03   -2.3374698E+04    1.5677217E+06   -7.3120860E+03    1.6872671E+06
   -1.34   300.000   -1.604E+01    1.7371868E+06    6.9782931E+03   -2.7209960E+04    1.5833507E+06   -6.9782589E+03    1.7371868E+06
   -1.33   300.000   -1.637E+01    1.7868985E+06    6.0573027E+03   -3.0764586E+04    1.5975513E+06   -6.0572731E+03    1.7868985E+06
   -1.32   300.000   -1.669E+01    1.8353091E+06    4.3961741E+03   -3.3511804E+04    1.6128573E+06   -4.3961506E+03    1.8353092E+06
   -1.31   300.000   -1.702E+01    1.8790705E+06    2.1319575E+03   -3.5160585E+04    1.6315220E+06   -2.1319401E+03    1.8790705E+06
   -1.30   300.000   -1.735E+01    1.9118996E+06   -3.4545798E+02   -3.5657903E+04    1.6555030E+06    3.4547044E+02    1.9118996E+06
   -1.29   300.000   -1.768E+01    1.9259427E+06   -2.6214111E+03   -3.5144301E+04    1.6857910E+06    2.6214210E+03    1.9259427E+06
   -1.28   300.000   -1.801E+01    1.9152999E+06   -4.4731112E+03   -3.3897702E+04    1.7217110E+06    4.4731211E+03    1.9152999E+06
   -1.27   300.000   -1.834E+01    1.8797991E+06   -5.8631736E+03   -3.2264028E+04    1.7611221E+06    5.8631856E+03    1.8797991E+06
   -1.26   300.000   -1.867E+01    1.8262578E+06   -6.7577290E+03   -3.0599910E+04    1.8014532E+06    6.7577444E+03    1.8262579E+06
   -1.25   300.000   -1.900E+01    1.7663735E+06   -7.0096746E+03   -2.9266880E+04    1.8403356E+06    7.0096932E+03    1.7663735E+06
   -1.24   300.000   -1.932E+01    1.7131925E+06   -6.4346447E+03   -2.8610488E+04    1.8749968E+06    6.4346651E+03    1.7131925E+06
   -1.23   300.000   -1.965E+01    1.6784847E+06   -4.9816332E+03   -2.8816121E+04    1.9013222E+06    4.9816533E+03    1.6784847E+06
   -1.22   300.000   -1.998E+01    1.6712811E+06   -2.8343566E+03   -2.9740550E+04    1.9143106E+06    2.8343739E+03    1.6712811E+06
   -1.21   300.000   -2.031E+01    1.6964408E+06   -3.7428611E+02   -3.0964653E+04    1.9103865E+06    3.7429864E+02    1.6964408E+06
   -1.20   300.000   -2.065E+01    1.7529225E+06    1.9530824E+03   -3.2088162E+04    1.8899923E+06   -1.9530751E+03    1.7529225E+06
   -1.19   300.000   -2.100E+01    1.8329697E+06    3.7720587E+03   -3.2983108E+04    1.8582169E+06   -3.7720557E+03    1.8329697E+06
   -1.18   300.000   -2.135E+01    1.9238084E+06    4.8317032E+03   -3.3763563E+04    1.8227934E+06   -4.8317026E+03    1.9238084E+06
   -1.17   300.000   -2.171E+01    2.0120726E+06    4.9901650E+03   -3.4581738E+04    1.7911939E+06   -4.9901650E+03    2.0120726E+06
   -1.16   300.000   -2.208E+01    2.0888834E+06    4.2044602E+03   -3.5566817E+04    1.7692231E+06   -4.2044595E+03    2.0888834E+06
   -1.15   300.000   -2.245E+01    2.1524525E+06    2.5629438E+03   -3.6946792E+04    1.7616541E+06   -2.5629415E+03    2.1524525E+06
   -1.14   300.000   -2.284E+01    2.2066723E+06    3.1588762E+02   -3.9037776E+04    1.7731540E+06   -3.1588286E+02    2.2066723E+06
   -1.13   300.000   -2.323E+01    2.2570829E+06   -2.1507382E+03   -4.1965705E+04    1.8076783E+06    2.1507463E+03    2.2570829E+06
   -1.12   300.000   -2.362E+01    2.3071638E+06   -4.4000876E+03   -4.5426811E+04    1.8666460E+06    4.4001002E+03    2.3071638E+06
   -1.11   300.000   -2.403E+01    2.3570366E+06   -6.0553744E+03   -4.8798856E+04    1.9478437E+06    6.0553925E+03    2.3570366E+06
   -1.10   300.000   -2.445E+01    2.4045916E+06   -6.9116961E+03   -5.1521198E+04    2.0462709E+06    6.9117200E+03    2.4045916E+06
   -1.09   300.000   -2.487E+01    2.4474541E+06   -7.0269656E+03   -5.3377333E+04    2.1560813E+06    7.0269946E+03    2.4474541E+06
   -1.08   300.000   -2.531E+01    2.4840591E+06   -6.7396077E+03   -5.4389967E+04    2.2716663E+06    6.7396401E+03    2.4840591E+06
   -1.07   300.000   -2.575E+01    2.5134063E+06   -6.5539756E+03   -5.4440221E+04    2.3869373E+06    6.5540093E+03    2.5134063E+06
   -1.06   300.000   -2.620E+01    2.5347106E+06   -6.9223944E+03   -5.3102037E+04    2.4940751E+06    6.9224274E+03    2.5347106E+06
   -1.05   300.000   -2.666E+01    2.5481981E+06   -8.0585610E+03   -5.0017599E+04    2.5839158E+06    8.0585919E+03    2.5481981E+06
   -1.04   300.000   -2.713E+01    2.5563888E+06   -9.8906512E+03   -4.5489515E+04    2.6484879E+06    9.8906794E+03    2.5563888E+06
   -1.03   300.000   -2.761E+01    2.5639007E+06   -1.2135504E+04   -4.0622046E+04    2.6839191E+06    1.2135530E+04    2.5639007E+06
   -1.02   300.000   -2.808E+01    2.5751718E+06   -1.4416923E+04   -3.6784501E+04    2.6915116E+06    1.4416947E+04    2.5751718E+06
   -1.01   300.000   -2.856E+01    2.5918673E+06   -1.6377790E+04   -3.4870024E+04    2.6764848E+06    1.6377811E+04    2.5918674E+06
   -1.00   300.000   -2.904E+01    2.6122381E+06   -1.7744212E+04   -3.4977887E+04    2.6458597E+06    1.7744232E+04    2.6122381E+06
   -0.99   300.000   -2.952E+01    2.6329296E+06   -1.8314498E+04   -3.6657732E+04    2.6073121E+06    1.8314515E+04    2.6329296E+06
   -0.98   300.000   -2.999E+01    2.6516940E+06   -1.7929870E+04   -3.9333000E+04    2.5692708E+06    1.7929883E+04    2.6516941E+06
   -0.97   300.000   -3.047E+01    2.6689084E+06   -1.6528522E+04   -4.2552729E+04    2.5408973E+06    1.6528530E+04    2.6689085E+06
   -0.96   300.000   -3.094E+01    2.6870030E+06   -1.4277725E+04   -4.6119470E+04    2.5306374E+06    1.4277727E+04    2.6870031E+06
   -0.95   300.000   -3.141E+01    2.7086047E+06   -1.1650352E+04   -5.0215034E+04    2.5436304E+06    1.1650347E+04    2.7086048E+06
   -0.94   300.000   -3.188E+01    2.7350394E+06   -9.3314285E+03   -5.5361016E+04    2.5796951E+06    9.3314158E+03    2.7350395E+06
   -0.93   300.000   -3.235E+01    2.7662804E+06   -7.9663395E+03   -6.2035849E+04    2.6333542E+06    7.9663208E+03    2.7662805E+06
   -0.92   300.000   -3.282E+01    2.8018461E+06   -7.8764049E+03   -7.0147787E+04    2.6957109E+06    7.8763819E+03    2.8018462E+06
   -0.91   300.000   -3.328E+01    2.8410783E+06   -8.8965270E+03   -7.8831261E+04    2.7570374E+06    8.8965018E+03    2.8410784E+06
   -0.90   300.000   -3.374E+01    2.8821945E+06   -1.0419161E+04   -8.6856929E+04    2.8094102E+06    1.0419136E+04    2.8821946E+06
   -0.89   300.000   -3.421E+01    2.9213970E+06   -1.1628348E+04   -9.3462355E+04    2.8488577E+06    1.1628325E+04    2.9213970E+06
   -0.88   300.000   -3.467E+01    2.9535326E+06   -1.1832887E+04   -9.9030681E+04    2.8758109E+06    1.1832865E+04    2.9535327E+06
   -0.87   300.000   -3.513E+01    2.9739502E+06   -1.0753986E+04   -1.0506815E+05    2.8932529E+06    1.0753966E+04    2.9739502E+06
   -0.86   300.000   -3.559E+01    2.9798162E+06   -8.6189707E+03   -1.1336005E+05    2.9039399E+06    8.6189520E+03    2.9798162E+06
   -0.85   300.000   -3.605E+01    2.9701680E+06   -6.0032166E+03   -1.2480769E+05    2.9087072E+06    6.0031978E+03    2.9701680E+06
   -0.84   300.000   -3.651E+01    2.9458211E+06   -3.5033352E+03   -1.3879260E+05    2.9066175E+06    3.5033154E+03    2.9458212E+06
   -0.83   300.000   -3.697E+01    2.9101037E+06   -1.4195084E+03   -1.5352060E+05    2.8964336E+06    1.4194868E+03    2.9101038E+06
   -0.82   300.000   -3.743E+01    2.8696900E+06    3.7754441E+02   -1.6696324E+05    2.8784769E+06   -3.7756883E+02    2.8696901E+06
   -0.81   300.000   -3.789E+01    2.8340806E+06    2.3361063E+03   -1.7762788E+05    2.8560453E+06   -2.3361346E+03    2.8340806E+06
   -0.80   300.000   -3.834E+01    2.8131608E+06    4.9745211E+03   -1.8475322E+05    2.8356592E+06   -4.9745546E+03    2.8131608E+06
   -0.79   300.000   -3.879E+01    2.8136814E+06    8.6413173E+03   -1.8807544E+05    2.8255180E+06   -8.6413567E+03    2.8136814E+06
   -0.78   300.000   -3.924E+01    2.8365507E+06    1.3336208E+04   -1.8755034E+05    2.8325970E+06   -1.3336253E+04    2.8365508E+06
   -0.77   300.000   -3.969E+01    2.8767121E+06    1.8600507E+04   -1.8327331E+05    2.8601088E+06   -1.8600557E+04    2.8767122E+06
   -0.76   300.000   -4.014E+01    2.9257212E+06    2.3552312E+04   -1.7548172E+05    2.9066061E+06   -2.3552365E+04    2.9257212E+06
   -0.75   300.000   -4.059E+01    2.9751951E+06    2.7149236E+04   -1.6443508E+05    2.9664697E+06   -2.7149291E+04    2.9751952E+06
   -0.74   300.000   -4.104E+01    3.0190540E+06    2.8622919E+04   -1.5029662E+05    3.0311668E+06   -2.8622975E+04    3.0190540E+06
   -0.73   300.000   -4.149E+01    3.0540804E+06    2.7873171E+04   -1.3330641E+05    3.0912487E+06   -2.7873228E+04    3.0540804E+06
   -0.72   300.000   -4.193E+01    3.0798329E+06    2.5573237E+04   -1.1422752E+05    3.1390218E+06   -2.5573295E+04    3.0798329E+06
   -0.71   300.000   -4.237E+01    3.0986986E+06    2.2851344E+04   -9.4684930E+04    3.1711218E+06   -2.2851405E+04    3.0986986E+06
   -0.70   300.000   -4.281E+01    3.1156867E+06    2.0680063E+04   -7.7007135E+04    3.1898070E+06   -2.0680129E+04    3.1156867E+06
   -0.69   300.000   -4.324E+01    3.1373656E+06    1.9388000E+04   -6.3544699E+04    3.2022289E+06   -1.9388071E+04    3.1373656E+06
   -0.68   300.000   -4.366E+01    3.1701681E+06    1.8663257E+04   -5.5878480E+04    3.2179737E+06   -1.8663333E+04    3.1701680E+06
   -0.67   300.000   -4.408E+01    3.2185732E+06    1.7967270E+04   -5.4386417E+04    3.2457925E+06   -1.7967350E+04    3.2185732E+06
   -0.66   300.000   -4.450E+01    3.2832895E+06    1.6897737E+04   -5.8262466E+04    3.2903661E+06   -1.6897818E+04    3.2832895E+06
   -0.65   300.000   -4.492E+01    3.3596868E+06    1.5202566E+04   -6.5788020E+04    3.3499990E+06   -1.5202645E+04    3.3596868E+06
   -0.64   300.000   -4.534E+01    3.4375079E+06    1.2644844E+04   -7.4690447E+04    3.4163859E+06   -1.2644921E+04    3.4375078E+06
   -0.63   300.000   -4.576E+01    3.5030108E+06    9.0774555E+03   -8.2509903E+04    3.4770141E+06   -9.0775294E+03    3.5030108E+06
   -0.62   300.000   -4.619E+01    3.5432865E+06    4.7110315E+03   -8.6940926E+04    3.5192406E+06   -4.7111037E+03    3.5432865E+06
   -0.61   300.000   -4.661E+01    3.5506623E+06    2.0884489E+02   -8.6220246E+04    3.5340873E+06   -2.0891746E+02    3.5506623E+06
   -0.60   300.000   -4.704E+01    3.5248438E+06   -3.5933829E+03   -7.9628395E+04    3.5183605E+06    3.5933071E+03    3.5248439E+06
   -0.59   300.000   -4.747E+01    3.4720716E+06   -6.1085994E+03   -6.7896115E+04    3.4750100E+06    6.1085180E+03    3.4720717E+06
   -0.58   300.000   -4.790E+01    3.4024772E+06   -7.2179196E+03   -5.3099378E+04    3.4123125E+06    7.2178311E+03    3.4024773E+06
   -0.57   300.000   -4.833E+01    3.3273870E+06   -7.2337585E+03   -3.7920385E+04    3.3421412E+06    7.2336628E+03    3.3273872E+06
   -0.56   300.000   -4.876E+01    3.2572908E+06   -6.7444114E+03   -2.4677127E+04    3.2771270E+06    6.7443091E+03    3.2572910E+06
   -0.55   300.000   -4.918E+01    3.1999101E+06   -6.3959269E+03   -1.4717471E+04    3.2270125E+06    6.3958193E+03    3.1999103E+06
   -0.54   300.000   -4.961E+01    3.1580854E+06   -6.6186260E+03   -8.5052254E+03    3.1955973E+06    6.6185142E+03    3.1580856E+06
   -0.53   300.000   -5.004E+01    3.1288139E+06   -7.4266227E+03   -6.1018446E+03    3.1799348E+06    7.4265081E+03    3.1288141E+06
   -0.52   300.000   -5.046E+01    3.1051467E+06   -8.4691531E+03   -7.3140357E+03    3.1722735E+06    8.4690376E+03    3.1051468E+06
   -0.51   300.000   -5.089E+01    3.0805574E+06   -9.3278644E+03   -1.1316125E+04    3.1636065E+06    9.3277504E+03    3.0805576E+06
   -0.50   300.000   -5.132E+01    3.0529057E+06   -9.8061760E+03   -1.6469328E+04    3.1467806E+06    9.8060670E+03    3.0529058E+06
   -0.49   300.000   -5.175E+01    3.0250239E+06   -9.9370452E+03   -2.0892539E+04    3.1176058E+06    9.9369452E+03    3.0250240E+06
   -0.48   300.000   -5.219E+01    3.0015708E+06   -9.7321909E+03   -2.3334097E+04    3.0741449E+06    9.7321037E+03    3.0015709E+06
   -0.47   300.000   -5.263E+01    2.9847359E+06   -8.9952800E+03   -2.3595436E+04    3.0158394E+06    8.9952084E+03    2.9847360E+06
   -0.46   300.000   -5.309E+01    2.9720389E+06   -7.4380788E+03   -2.2392204E+04    2.9437641E+06    7.4380235E+03    2.9720391E+06
   -0.45   300.000   -5.355E+01    2.9574521E+06   -4.9854034E+03   -2.0968555E+04    2.8615212E+06    4.9853633E+03    2.9574522E+06
   -0.44   300.000   -5.403E+01    2.9343889E+06   -1.9469969E+03   -2.0593426E+04    2.7751717E+06    1.9469693E+03    2.9343891E+06
   -0.43   300.000   -5.452E+01    2.8983469E+06    1.1357135E+03   -2.1971519E+04    2.6915939E+06   -1.1357317E+03    2.8983471E+06
   -0.42   300.000   -5.502E+01    2.8483924E+06    3.8169085E+03   -2.4887520E+04    2.6165990E+06   -3.8169209E+03    2.8483925E+06
   -0.41   300.000   -5.554E+01    2.7878328E+06    5.8911617E+03   -2.8449700E+04    2.5544123E+06   -5.8911711E+03    2.7878329E+06
   -0.40   300.000   -5.608E+01    2.7240603E+06    7.1978683E+03   -3.1798822E+04    2.5083440E+06   -7.1978776E+03    2.7240604E+06
   -0.39   300.000   -5.663E+01    2.6670426E+06    7.3355465E+03   -3.4677494E+04    2.4811290E+06   -7.3355581E+03    2.6670427E+06
   -0.38   300.000   -5.721E+01    2.6263737E+06    5.6728511E+03   -3.7386473E+04    2.4740354E+06   -5.6728671E+03    2.6263738E+06
   -0.37   300.000   -5.780E+01    2.6077444E+06    1.7478150E+03   -4.0240054E+04    2.4853172E+06   -1.7478366E+03    2.6077445E+06
   -0.36   300.000   -5.841E+01    2.6105274E+06   -4.2490217E+03   -4.3079933E+04    2.5094955E+06    4.2489944E+03    2.6105275E+06
   -0.35   300.000   -5.904E+01    2.6281007E+06   -1.1335642E+04   -4.5306204E+04    2.5386728E+06    1.1335610E+04    2.6281008E+06
   -0.34   300.000   -5.969E+01    2.6509505E+06   -1.8125595E+04   -4.6400101E+04    2.5654392E+06    1.8125558E+04    2.6509507E+06
   -0.33   300.000   -6.034E+01    2.6706090E+06   -2.3495125E+04   -4.6498946E+04    2.5852323E+06    2.3495084E+04    2.6706091E+06
   -0.32   300.000   -6.101E+01    2.6821533E+06   -2.7055652E+04   -4.6506833E+04    2.5964420E+06    2.7055607E+04    2.6821534E+06
   -0.31   300.000   -6.168E+01    2.6845368E+06   -2.9143511E+04   -4.7585877E+04    2.5988242E+06    2.9143461E+04    2.6845369E+06
   -0.30   300.000   -6.235E+01    2.6795171E+06   -3.0411200E+04   -5.0469754E+04    2.5921436E+06    3.0411145E+04    2.6795172E+06
   -0.29   300.000   -6.303E+01    2.6700957E+06   -3.1317229E+04   -5.5245346E+04    2.5761598E+06    3.1317167E+04    2.6700958E+06
   -0.28   300.000   -6.370E+01    2.6588696E+06   -3.1824942E+04   -6.1738121E+04    2.5514689E+06    3.1824874E+04    2.6588697E+06
   -0.27   300.000   -6.438E+01    2.6466188E+06   -3.1505058E+04   -6.9995298E+04    2.5198935E+06    3.1504984E+04    2.6466189E+06
   -0.26   300.000   -6.506E+01    2.6317738E+06   -2.9974169E+04   -8.0304781E+04    2.4837005E+06    2.9974090E+04    2.6317739E+06
   -0.25   300.000   -6.575E+01    2.6113065E+06   -2.7312012E+04   -9.2666090E+04    2.4443185E+06    2.7311931E+04    2.6113066E+06
   -0.24   300.000   -6.643E+01    2.5826816E+06   -2.4087888E+04   -1.0614326E+05    2.4018897E+06    2.4087808E+04    2.5826817E+06
   -0.23   300.000   -6.712E+01    2.5456041E+06   -2.1007173E+04   -1.1871368E+05    2.3562603E+06    2.1007099E+04    2.5456042E+06
   -0.22   300.000   -6.781E+01    2.5024997E+06   -1.8570104E+04   -1.2793108E+05    2.3086986E+06    1.8570041E+04    2.5024998E+06
   -0.21   300.000   -6.851E+01    2.4576970E+06   -1.7036795E+04   -1.3208805E+05    2.2628829E+06    1.7036745E+04    2.4576972E+06
   -0.20   300.000   -6.922E+01    2.4159233E+06   -1.6576613E+04   -1.3108322E+05    2.2241866E+06    1.6576580E+04    2.4159234E+06
   -0.19   300.000   -6.994E+01    2.3807357E+06   -1.7314959E+04   -1.2635086E+05    2.1976721E+06    1.7314942E+04    2.3807358E+06
   -0.18   300.000   -7.068E+01    2.3534936E+06   -1.9222327E+04   -1.1992541E+05    2.1861775E+06    1.9222324E+04    2.3534937E+06
   -0.17   300.000   -7.142E+01    2.3333703E+06   -2.2030154E+04   -1.1336201E+05    2.1895849E+06    2.2030163E+04    2.3333705E+06
   -0.16   300.000   -7.218E+01    2.3183105E+06   -2.5293846E+04   -1.0728130E+05    2.2053089E+06    2.5293863E+04    2.3183107E+06
   -0.15   300.000   -7.295E+01    2.3062761E+06   -2.8529828E+04   -1.0174760E+05    2.2294314E+06    2.8529848E+04    2.3062762E+06
   -0.14   300.000   -7.372E+01    2.2963163E+06   -3.1334576E+04   -9.7013713E+04    2.2580448E+06    3.1334597E+04    2.2963164E+06
   -0.13   300.000   -7.449E+01    2.2893622E+06   -3.3479833E+04   -9.3935985E+04    2.2884426E+06    3.3479854E+04    2.2893623E+06
   -0.12   300.000   -7.526E+01    2.2884174E+06   -3.4960177E+04   -9.3702778E+04    2.3195217E+06    3.4960195E+04    2.2884175E+06
   -0.11   300.000   -7.604E+01    2.2975527E+06   -3.5932567E+04   -9.7093369E+04    2.3509763E+06    3.5932583E+04    2.2975528E+06
   -0.10   300.000   -7.681E+01    2.3196738E+06   -3.6564798E+04   -1.0383641E+05    2.3818149E+06    3.6564810E+04    2.3196739E+06
   -0.09   300.000   -7.759E+01    2.3541361E+06   -3.6890132E+04   -1.1252938E+05    2.4093956E+06    3.6890141E+04    2.3541361E+06
   -0.08   300.000   -7.838E+01    2.3958177E+06   -3.6761205E+04   -1.2118690E+05    2.4297701E+06    3.6761210E+04    2.3958178E+06
   -0.07   300.000   -7.918E+01    2.4365488E+06   -3.5951410E+04   -1.2811826E+05    2.4391527E+06    3.5951411E+04    2.4365488E+06
   -0.06   300.000   -7.998E+01    2.4682643E+06   -3.4355969E+04   -1.3264307E+05    2.4356681E+06    3.4355967E+04    2.4682644E+06
   -0.05   300.000   -8.080E+01    2.4860912E+06   -3.2127277E+04   -1.3521844E+05    2.4204526E+06    3.2127273E+04    2.4860913E+06
   -0.04   300.000   -8.162E+01    2.4897349E+06   -2.9613613E+04   -1.3690942E+05    2.3975636E+06    2.9613607E+04    2.4897350E+06
   -0.03   300.000   -8.244E+01    2.4827869E+06   -2.7174361E+04   -1.3856418E+05    2.3727187E+06    2.7174353E+04    2.4827870E+06
   -0.02   300.000   -8.327E+01    2.4708022E+06   -2.5059075E+04   -1.4020998E+05    2.3514060E+06    2.5059064E+04    2.4708024E+06
   -0.01   300.000   -8.411E+01    2.4593456E+06   -2.3428363E+04   -1.4102274E+05    2.3373098E+06    2.3428349E+04    2.4593457E+06
    0.00   300.000   -8.495E+01    2.4526634E+06   -2.2426251E+04   -1.3987089E+05    2.3318781E+06    2.2426234E+04    2.4526635E+06
    0.01   300.000   -8.579E+01    2.4529491E+06   -2.2168989E+04   -1.3600985E+05    2.3349726E+06    2.2168969E+04    2.4529492E+06
    0.02   300.000   -8.664E+01    2.4601508E+06   -2.2624446E+04   -1.2937511E+05    2.3457478E+06    2.2624423E+04    2.4601509E+06
    0.03   300.000   -8.749E+01    2.4726195E+06   -2.3509955E+04   -1.2036719E+05    2.3631966E+06    2.3509930E+04    2.4726197E+06
    0.04   300.000   -8.834E+01    2.4886371E+06   -2.4361489E+04   -1.0954442E+05    2.3865128E+06    2.4361464E+04    2.4886372E+06
    0.05   300.000   -8.920E+01    2.5079749E+06   -2.4762259E+04   -9.7572354E+04    2.4154061E+06    2.4762236E+04    2.5079750E+06
    0.06   300.000   -9.006E+01    2.5322423E+06   -2.4536192E+04   -8.5346381E+04    2.4500687E+06    2.4536175E+04    2.5322424E+06
    0.07   300.000   -9.093E+01    2.5635570E+06   -2.3755722E+04   -7.4046287E+04    2.4905903E+06    2.3755713E+04    2.5635571E+06
    0.08   300.000   -9.181E+01    2.6023996E+06   -2.2633216E+04   -6.5036190E+04    2.5361870E+06    2.2633218E+04    2.6023997E+06
    0.09   300.000   -9.270E+01    2.6461737E+06   -2.1444756E+04   -5.9627858E+04    2.5848357E+06    2.1444770E+04    2.6461737E+06
    0.10   300.000   -9.361E+01    2.6894313E+06   -2.0492988E+04   -5.8697888E+04    2.6334495E+06    2.0493013E+04    2.6894313E+06
    0.11   300.000   -9.455E+01    2.7254715E+06   -2.0004894E+04   -6.2200341E+04    2.6781328E+06    2.0004928E+04    2.7254715E+06
    0.12   300.000   -9.549E+01    2.7481769E+06   -1.9956081E+04   -6.8833047E+04    2.7140911E+06    1.9956122E+04    2.7481769E+06
    0.13   300.000   -9.645E+01    2.7532333E+06   -1.9983270E+04   -7.6257667E+04    2.7356051E+06    1.9983315E+04    2.7532333E+06
    0.14   300.000   -9.743E+01    2.7387710E+06   -1.9532598E+04   -8.2004294E+04    2.7371103E+06    1.9532645E+04    2.7387710E+06
    0.15   300.000   -9.841E+01    2.7057929E+06   -1.8175554E+04   -8.4580094E+04    2.7155201E+06    1.8175602E+04    2.7057929E+06
    0.16   300.000   -9.939E+01    2.6582183E+06   -1.5878654E+04   -8.3966110E+04    2.6721452E+06    1.5878701E+04    2.6582183E+06
    0.17   300.000   -1.004E+02    2.6019775E+06   -1.3072235E+04   -8.1123509E+04    2.6123473E+06    1.3072281E+04    2.6019775E+06
    0.18   300.000   -1.014E+02    2.5431342E+06   -1.0474975E+04   -7.6997486E+04    2.5431768E+06    1.0475021E+04    2.5431342E+06
    0.19   300.000   -1.024E+02    2.4859256E+06   -8.7357884E+03   -7.1916761E+04    2.4710348E+06    8.7358355E+03    2.4859257E+06
    0.20   300.000   -1.034E+02    2.4318105E+06   -8.0984938E+03   -6.5818831E+04    2.4007579E+06    8.0985415E+03    2.4318105E+06
    0.21   300.000   -1.043E+02    2.3798825E+06   -8.3155829E+03   -5.8882412E+04    2.3357752E+06    8.3156304E+03    2.3798826E+06
    0.22   300.000   -1.053E+02    2.3281527E+06   -8.8348884E+03   -5.1791382E+04    2.2783558E+06    8.8349346E+03    2.3281527E+06
    0.23   300.000   -1.063E+02    2.2748825E+06   -9.0939229E+03   -4.5327841E+04    2.2294609E+06    9.0939666E+03    2.2748825E+06
    0.24   300.000   -1.073E+02    2.2192920E+06   -8.7631927E+03   -3.9747644E+04    2.1882410E+06    8.7632330E+03    2.2192921E+06
    0.25   300.000   -1.082E+02    2.1614312E+06   -7.8576683E+03   -3.4619350E+04    2.1515812E+06    7.8577043E+03    2.1614313E+06
    0.26   300.000   -1.091E+02    2.1016146E+06   -6.6661313E+03   -2.9309852E+04    2.1143865E+06    6.6661619E+03    2.1016146E+06
    0.27   300.000   -1.101E+02    2.0400419E+06   -5.5163631E+03   -2.3638827E+04    2.0710598E+06    5.5163872E+03    2.0400420E+06
    0.28   300.000   -1.109E+02    1.9768748E+06   -4.5380188E+03   -1.8093032E+04    2.0177020E+06    4.5380361E+03    1.9768749E+06
    0.29   300.000   -1.118E+02    1.9125675E+06   -3.6260384E+03   -1.3482135E+04    1.9537794E+06    3.6260495E+03    1.9125676E+06
    0.30   300.000   -1.126E+02    1.8480638E+06   -2.6272462E+03   -1.0417074E+04    1.8821833E+06    2.6272530E+03    1.8480638E+06
    0.31   300.000   -1.135E+02    1.7846214E+06   -1.5535788E+03   -8.9960047E+03    1.8076697E+06    1.5535837E+03    1.7846215E+06
    0.32   300.000   -1.143E+02    1.7233614E+06   -6.2343564E+02   -8.8086856E+03    1.7347554E+06    6.2344104E+02    1.7233614E+06
    0.33   300.000   -1.150E+02    1.6649010E+06   -1.3066476E+02   -9.1887444E+03    1.6663543E+06    1.3067213E+02    1.6649011E+06
    0.34   300.000   -1.158E+02    1.6093823E+06   -2.8855010E+02   -9.5468813E+03    1.6036289E+06    2.8855963E+02    1.6093823E+06
    0.35   300.000   -1.165E+02    1.5568588E+06   -1.1546551E+03   -9.5819335E+03    1.5465864E+06    1.1546658E+03    1.5568588E+06
    0.36   300.000   -1.172E+02    1.5076628E+06   -2.6327746E+03   -9.3005328E+03    1.4947345E+06    2.6327844E+03    1.5076628E+06
    0.37   300.000   -1.179E+02    1.4623797E+06   -4.5188502E+03   -8.9468042E+03    1.4474989E+06    4.5188572E+03    1.4623797E+06
    0.38   300.000   -1.186E+02    1.4214651E+06   -6.5733706E+03   -8.9121920E+03    1.4044292E+06    6.5733734E+03    1.4214651E+06
    0.39   300.000   -1.192E+02    1.3849264E+06   -8.5868416E+03   -9.5782854E+03    1.3652437E+06    8.5868394E+03    1.3849264E+06
    0.40   300.000   -1.199E+02    1.3524269E+06   -1.0397849E+04   -1.1084623E+04    1.3297589E+06    1.0397843E+04    1.3524269E+06
    0.41   300.000   -1.205E+02    1.3237528E+06   -1.1870280E+04   -1.3146309E+04    1.2978727E+06    1.1870270E+04    1.3237528E+06
    0.42   300.000   -1.210E+02    1.2992339E+06   -1.2880608E+04   -1.5081794E+04    1.2697310E+06    1.2880595E+04    1.2992339E+06
    0.43   300.000   -1.216E+02    1.2797194E+06   -1.3347697E+04   -1.6097632E+04    1.2458754E+06    1.3347683E+04    1.2797195E+06
    0.44   300.000   -1.222E+02    1.2660600E+06   -1.3284472E+04   -1.5693176E+04    1.2270262E+06    1.3284459E+04    1.2660600E+06
    0.45   300.000   -1.227E+02    1.2584297E+06   -1.2820299E+04   -1.3952697E+04    1.2135234E+06    1.2820289E+04    1.2584297E+06
    0.46   300.000   -1.232E+02    1.2559525E+06   -1.2159363E+04   -1.1569711E+04    1.2048580E+06    1.2159356E+04    1.2559526E+06
    0.47   300.000   -1.237E+02    1.2569087E+06   -1.1495672E+04   -9.5996204E+03    1.1996827E+06    1.1495670E+04    1.2569088E+06
    0.48   300.000   -1.243E+02    1.2594603E+06   -1.0945575E+04   -9.0476933E+03    1.1964163E+06    1.0945577E+04    1.2594603E+06
    0.49   300.000   -1.248E+02    1.2625564E+06   -1.0538978E+04   -1.0477964E+04    1.1943000E+06    1.0538983E+04    1.2625565E+06
    0.50   300.000   -1.253E+02    1.2665504E+06   -1.0269054E+04   -1.3859805E+04    1.1943548E+06    1.0269063E+04    1.2665505E+06
    0.51   300.000   -1.258E+02    1.2730935E+06   -1.0166428E+04   -1.8720718E+04    1.1993764E+06    1.0166438E+04    1.2730936E+06
    0.52   300.000   -1.263E+02    1.2842192E+06   -1.0322403E+04   -2.4401039E+04    1.2126259E+06    1.0322415E+04    1.2842193E+06
    0.53   300.000   -1.268E+02    1.3011855E+06   -1.0795639E+04   -3.0167728E+04    1.2360169E+06    1.0795649E+04    1.3011855E+06
    0.54   300.000   -1.273E+02    1.3239812E+06   -1.1464761E+04   -3.5223694E+04    1.2691576E+06    1.1464770E+04    1.3239812E+06
    0.55   300.000   -1.279E+02    1.3517989E+06   -1.2004105E+04   -3.8819005E+04    1.3098457E+06    1.2004112E+04    1.3517990E+06
    0.56   300.000   -1.284E+02    1.3838112E+06   -1.2060441E+04   -4.0475602E+04    1.3553298E+06    1.2060447E+04    1.3838113E+06
    0.57   300.000   -1.289E+02    1.4194462E+06   -1.1483437E+04   -4.0091814E+04    1.4032715E+06    1.1483442E+04    1.4194462E+06
    0.58   300.000   -1.295E+02    1.4580881E+06   -1.0408643E+04   -3.7789515E+04    1.4520680E+06    1.0408647E+04    1.4580881E+06
    0.59   300.000   -1.300E+02    1.4986927E+06   -9.1653774E+03   -3.3704612E+04    1.5007907E+06    9.1653824E+03    1.4986928E+06
    0.60   300.000   -1.306E+02    1.5396535E+06   -8.1219263E+03   -2.8026919E+04    1.5488743E+06    8.1219331E+03    1.5396535E+06
    0.61   300.000   -1.312E+02    1.5788412E+06   -7.5442098E+03   -2.1293538E+04    1.5955502E+06    7.5442195E+03    1.5788412E+06
    0.62   300.000   -1.317E+02    1.6136837E+06   -7.4955069E+03   -1.4606002E+04    1.6392602E+06    7.4955200E+03    1.6136837E+06
    0.63   300.000   -1.323E+02    1.6414242E+06   -7.8280679E+03   -9.4832379E+03    1.6774522E+06    7.8280838E+03    1.6414242E+06
    0.64   300.000   -1.329E+02    1.6597741E+06   -8.2758796E+03   -7.4157715E+03    1.7069468E+06    8.2758969E+03    1.6597741E+06
    0.65   300.000   -1.334E+02    1.6677294E+06   -8.5607624E+03   -9.4069197E+03    1.7247035E+06    8.5607786E+03    1.6677294E+06
    0.66   300.000   -1.340E+02    1.6658350E+06   -8.4419218E+03   -1.5667149E+04    1.7285972E+06    8.4419342E+03    1.6658350E+06
    0.67   300.000   -1.345E+02    1.6555590E+06   -7.7475072E+03   -2.5498004E+04    1.7179733E+06    7.7475138E+03    1.6555590E+06
    0.68   300.000   -1.351E+02    1.6384890E+06   -6.4422220E+03   -3.7473841E+04    1.6940688E+06    6.4422217E+03    1.6384890E+06
    0.69   300.000   -1.357E+02    1.6162617E+06   -4.6816165E+03   -4.9965018E+04    1.6602409E+06    4.6816094E+03    1.6162617E+06
    0.70   300.000   -1.363E+02    1.5910798E+06   -2.7540926E+03   -6.1698561E+04    1.6215707E+06    2.7540793E+03    1.5910798E+06
    0.71   300.000   -1.368E+02    1.5659225E+06   -9.2107631E+02   -7.1942988E+04    1.5837325E+06    9.2105776E+02    1.5659225E+06
    0.72   300.000   -1.374E+02    1.5440848E+06    7.0310893E+02   -8.0307501E+04    1.5517439E+06   -7.0313167E+02    1.5440848E+06
    0.73   300.000   -1.380E+02    1.5285422E+06    2.1249362E+03   -8.6508615E+04    1.5292947E+06   -2.1249620E+03    1.5285422E+06
    0.74   300.000   -1.387E+02    1.5216926E+06    3.3510738E+03   -9.0348112E+04    1.5187699E+06   -3.3511011E+03    1.5216926E+06
    0.75   300.000   -1.393E+02    1.5253779E+06    4.3029069E+03   -9.1857334E+04    1.5215973E+06   -4.3029344E+03    1.5253780E+06
    0.76   300.000   -1.399E+02    1.5406555E+06    4.8184683E+03   -9.1440612E+04    1.5384309E+06   -4.8184943E+03    1.5406555E+06
    0.77   300.000   -1.406E+02    1.5671439E+06    4.6974086E+03   -8.9874135E+04    1.5688472E+06   -4.6974319E+03    1.5671439E+06
    0.78   300.000   -1.413E+02    1.6024443E+06    3.7543647E+03   -8.8099297E+04    1.6106597E+06   -3.7543845E+03    1.6024443E+06
    0.79   300.000   -1.420E+02    1.6422903E+06    1.9018976E+03   -8.6876780E+04    1.6594346E+06   -1.9019137E+03    1.6422904E+06
    0.80   300.000   -1.428E+02    1.6815600E+06   -7.3613839E+02   -8.6473441E+04    1.7088908E+06    7.3612566E+02    1.6815601E+06
    0.81   300.000   -1.436E+02    1.7156043E+06   -3.7473758E+03   -8.6577333E+04    1.7523384E+06    3.7473652E+03    1.7156044E+06
    0.82   300.000   -1.444E+02    1.7411129E+06   -6.4708081E+03   -8.6555498E+04    1.7844794E+06    6.4707981E+03    1.7411130E+06
    0.83   300.000   -1.452E+02    1.7561500E+06   -8.1871584E+03   -8.5954729E+04    1.8025210E+06    8.1871475E+03    1.7561501E+06
    0.84   300.000   -1.461E+02    1.7596658E+06   -8.4124091E+03   -8.4906384E+04    1.8060399E+06    8.4123965E+03    1.7596659E+06
    0.85   300.000   -1.469E+02    1.7511286E+06   -7.1540364E+03   -8.4091634E+04    1.7959922E+06    7.1540221E+03    1.7511287E+06
    0.86   300.000   -1.478E+02    1.7307105E+06   -4.9528368E+03   -8.4265147E+04    1.7738399E+06    4.9528217E+03    1.7307106E+06
    0.87   300.000   -1.488E+02    1.6998812E+06   -2.6348082E+03   -8.5752657E+04    1.7414499E+06    2.6347937E+03    1.6998812E+06
    0.88   300.000   -1.498E+02    1.6617432E+06   -9.1033317E+02   -8.8363417E+04    1.7015169E+06    9.1032068E+02    1.6617433E+06
    0.89   300.000   -1.508E+02    1.6204798E+06   -9.5146550E+01   -9.1713739E+04    1.6576747E+06    9.5137044E+01    1.6204798E+06
    0.90   300.000   -1.518E+02    1.5799582E+06   -1.1781506E+02   -9.5536511E+04    1.6137760E+06    1.1780898E+02    1.5799583E+06
    0.91   300.000   -1.529E+02    1.5423042E+06   -7.2789634E+02   -9.9629820E+04    1.5726822E+06    7.2789375E+02    1.5423043E+06
    0.92   300.000   -1.541E+02    1.5073908E+06   -1.7005498E+03   -1.0357123E+05    1.5354422E+06    1.7005507E+03    1.5073909E+06
    0.93   300.000   -1.553E+02    1.4735351E+06   -2.9128569E+03   -1.0662595E+05    1.5014508E+06    2.9128615E+03    1.4735351E+06
    0.94   300.000   -1.566E+02    1.4388786E+06   -4.2961050E+03   -1.0803938E+05    1.4693739E+06    4.2961135E+03    1.4388787E+06
    0.95   300.000   -1.579E+02    1.4026307E+06   -5.7524041E+03   -1.0743096E+05    1.4381160E+06    5.7524167E+03    1.4026307E+06
    0.96   300.000   -1.592E+02    1.3655768E+06   -7.1365020E+03   -1.0489510E+05    1.4072705E+06    7.1365186E+03    1.3655769E+06
    0.97   300.000   -1.606E+02    1.3296915E+06   -8.3144402E+03   -1.0077917E+05    1.3770438E+06    8.3144605E+03    1.3296915E+06
    0.98   300.000   -1.620E+02    1.2971708E+06   -9.2120225E+03   -9.5445226E+04    1.3480152E+06    9.2120456E+03    1.2971708E+06
    0.99   300.000   -1.635E+02    1.2695326E+06   -9.8062676E+03   -8.9241397E+04    1.3210274E+06    9.8062920E+03    1.2695327E+06
    1.00   300.000   -1.649E+02    1.2473145E+06   -1.0110322E+04   -8.2612810E+04    1.2971826E+06    1.0110346E+04    1.2473146E+06
    1.01   300.000   -1.663E+02    1.2303758E+06   -1.0179892E+04   -7.6147021E+04    1.2776788E+06    1.0179913E+04    1.2303759E+06
    1.02   300.000   -1.677E+02    1.2183360E+06   -1.0097606E+04   -7.0443085E+04    1.2632939E+06    1.0097623E+04    1.2183361E+06
    1.03   300.000   -1.691E+02    1.2106565E+06   -9.9280848E+03   -6.5880506E+04    1.2536704E+06    9.9280969E+03    1.2106565E+06
    1.04   300.000   -1.704E+02    1.2063027E+06   -9.7120435E+03   -6.2477169E+04    1.2468831E+06    9.7120498E+03    1.2063028E+06
    1.05   300.000   -1.717E+02    1.2034840E+06   -9.5274850E+03   -5.9939843E+04    1.2398050E+06    9.5274856E+03    1.2034840E+06
    1.06   300.000   -1.729E+02    1.2000824E+06   -9.5374389E+03   -5.7814376E+04    1.2293808E+06    9.5374343E+03    1.2000824E+06
    1.07   300.000   -1.740E+02    1.1947408E+06   -9.9428244E+03   -5.5588201E+04    1.2141990E+06    9.9428154E+03    1.1947409E+06
    1.08   300.000   -1.751E+02    1.1877840E+06   -1.0874735E+04   -5.2752492E+04    1.1953444E+06    1.0874722E+04    1.1877841E+06
    1.09   300.000   -1.762E+02    1.1811984E+06   -1.2322095E+04   -4.8966191E+04    1.1759880E+06    1.2322080E+04    1.1811985E+06
    1.10   300.000   -1.772E+02    1.1777477E+06   -1.4128226E+04   -4.4350312E+04    1.1600954E+06    1.4128210E+04    1.1777478E+06
    1.11   300.000   -1.782E+02    1.1799224E+06   -1.6024044E+04   -3.9671198E+04    1.1510242E+06    1.6024026E+04    1.1799225E+06
    1.12   300.000   -1.791E+02    1.1892864E+06   -1.7677022E+04   -3.6099792E+04    1.1505455E+06    1.7677003E+04    1.1892865E+06
    1.13   300.000   -1.800E+02    1.2063097E+06   -1.8755974E+04   -3.4551989E+04    1.1585586E+06    1.8755953E+04    1.2063098E+06
    1.14   300.000   -1.808E+02    1.2304622E+06   -1.8999318E+04   -3.5062872E+04    1.1735739E+06    1.8999295E+04    1.2304622E+06
    1.15   300.000   -1.817E+02    1.2603442E+06   -1.8278490E+04   -3.6733713E+04    1.1936659E+06    1.8278467E+04    1.2603442E+06
    1.16   300.000   -1.825E+02    1.2938549E+06   -1.6665760E+04   -3.8355750E+04    1.2173044E+06    1.6665737E+04    1.2938549E+06
    1.17   300.000   -1.833E+02    1.3285516E+06   -1.4481276E+04   -3.9257689E+04    1.2436605E+06    1.4481254E+04    1.3285516E+06
    1.18   300.000   -1.841E+02    1.3622019E+06   -1.2242808E+04   -3.9758799E+04    1.2724140E+06    1.2242788E+04    1.3622019E+06
    1.19   300.000   -1.849E+02    1.3933041E+06   -1.0479543E+04   -4.0957453E+04    1.3033473E+06    1.0479524E+04    1.3933040E+06
    1.20   300.000   -1.857E+02    1.4213454E+06   -9.4873669E+03   -4.4091705E+04    1.3360365E+06    9.4873495E+03    1.4213454E+06
    1.21   300.000   -1.865E+02    1.4467157E+06   -9.1823183E+03   -4.9913375E+04    1.3698387E+06    9.1823017E+03    1.4467156E+06
    1.22   300.000   -1.872E+02    1.4702598E+06   -9.1660311E+03   -5.8363778E+04    1.4040916E+06    9.1660153E+03    1.4702598E+06
    1.23   300.000   -1.880E+02    1.4925543E+06   -8.9611437E+03   -6.8611582E+04    1.4381649E+06    8.9611290E+03    1.4925543E+06
    1.24   300.000   -1.887E+02    1.5132275E+06   -8.2417292E+03   -7.9366242E+04    1.4710623E+06    8.2417164E+03    1.5132275E+06
    1.25   300.000   -1.895E+02    1.5307371E+06   -6.9194776E+03   -8.9296494E+04    1.5007485E+06    6.9194681E+03    1.5307371E+06
    1.26   300.000   -1.902E+02    1.5428158E+06   -5.0942202E+03   -9.7366252E+04    1.5238834E+06    5.0942151E+03    1.5428159E+06
    1.27   300.000   -1.909E+02    1.5475053E+06   -2.9645558E+03   -1.0295280E+05    1.5366382E+06    2.9645562E+03    1.5475053E+06
    1.28   300.000   -1.916E+02    1.5443808E+06   -7.6942498E+02   -1.0571531E+05    1.5364682E+06    7.6943108E+02    1.5443809E+06
    1.29   300.000   -1.924E+02    1.5352985E+06    1.2439794E+03   -1.0534438E+05    1.5237311E+06   -1.2439679E+03    1.5352985E+06
    1.30   300.000   -1.931E+02    1.5241515E+06    2.8671804E+03   -1.0145590E+05    1.5019659E+06   -2.8671646E+03    1.5241515E+06
    1.31   300.000   -1.938E+02    1.5157474E+06    3.9812561E+03   -9.3806707E+04    1.4767332E+06   -3.9812374E+03    1.5157474E+06
    1.32   300.000   -1.945E+02    1.5144631E+06    4.5444217E+03   -8.2715869E+04    1.4540187E+06   -4.5444019E+03    1.5144630E+06
    1.33   300.000   -1.953E+02    1.5233612E+06    4.5016234E+03   -6.9317384E+04    1.4391438E+06   -4.5016041E+03    1.5233612E+06
    1.34   300.000   -1.960E+02    1.5440313E+06    3.7060087E+03   -5.5337083E+04    1.4362279E+06   -3.7059905E+03    1.5440312E+06
    1.35   300.000   -1.968E+02    1.5768975E+06    1.9598324E+03   -4.2501620E+04    1.4478125E+06   -1.9598149E+03    1.5768974E+06
    1.36   300.000   -1.976E+02    1.6214979E+06   -8.1277825E+02   -3.2004769E+04    1.4745915E+06    8.1279632E+02    1.6214978E+06
    1.37   300.000   -1.983E+02    1.6764508E+06   -4.3709088E+03   -2.4289256E+04    1.5154507E+06    4.3709290E+03    1.6764507E+06
    1.38   300.000   -1.991E+02    1.7393576E+06   -8.1063435E+03   -1.9052009E+04    1.5679097E+06    8.1063672E+03    1.7393576E+06
    1.39   300.000   -1.999E+02    1.8072457E+06   -1.1238616E+04   -1.5343800E+04    1.6289944E+06    1.1238644E+04    1.8072456E+06
    1.40   300.000   -2.007E+02    1.8777157E+06   -1.3169387E+04   -1.1828464E+04    1.6964366E+06    1.3169420E+04    1.8777157E+06
    1.41   300.000   -2.015E+02    1.9500291E+06   -1.3738593E+04   -7.2674308E+03    1.7696240E+06    1.3738632E+04    1.9500291E+06
    1.42   300.000   -2.023E+02    2.0250546E+06   -1.3183315E+04   -1.0382281E+03    1.8494514E+06    1.3183361E+04    2.0250545E+06
    1.43   300.000   -2.031E+02    2.1038517E+06   -1.1877447E+04    6.6363821E+03    1.9368032E+06    1.1877501E+04    2.1038517E+06
    1.44   300.000   -2.039E+02    2.1859093E+06   -1.0121708E+04    1.4828127E+04    2.0305565E+06    1.0121769E+04    2.1859093E+06
    1.45   300.000   -2.047E+02    2.2685176E+06   -8.1404415E+03    2.2169338E+04    2.1266775E+06    8.1405096E+03    2.2685176E+06
    1.46   300.000   -2.055E+02    2.3479207E+06   -6.1729057E+03    2.7054826E+04    2.2192753E+06    6.1729778E+03    2.3479207E+06
    1.47   300.000   -2.064E+02    2.4213913E+06   -4.4606142E+03    2.7919162E+04    2.3028909E+06    4.4606877E+03    2.4213913E+06
    1.48   300.000   -2.072E+02    2.4885335E+06   -3.1314345E+03    2.3776477E+04    2.3743640E+06    3.1315065E+03    2.4885335E+06
    1.49   300.000   -2.080E+02    2.5508708E+06   -2.1549191E+03    1.4825802E+04    2.4332635E+06    2.1549872E+03    2.5508708E+06
    1.50   300.000   -2.089E+02    2.6104905E+06   -1.4337041E+03    2.6762614E+03    2.4814156E+06    1.4337669E+03    2.6104905E+06
    1.51   300.000   -2.098E+02    2.6692545E+06   -9.1956818E+02   -9.9653021E+03    2.5227233E+06    9.1962526E+02    2.6692545E+06
    1.52   300.000   -2.106E+02    2.7290280E+06   -6.5786796E+02   -1.9887914E+04    2.5634498E+06    6.5792016E+02    2.7290280E+06
    1.53   300.000   -2.115E+02    2.7920598E+06   -7.5131160E+02   -2.4041552E+04    2.6120021E+06    7.5136058E+02    2.7920597E+06
    1.54   300.000   -2.124E+02    2.8607817E+06   -1.2376946E+03   -2.0407199E+04    2.6775247E+06    1.2377422E+03    2.8607816E+06
    1.55   300.000   -2.133E+02    2.9373290E+06   -1.8942080E+03   -9.1321688E+03    2.7676528E+06    1.8942554E+03    2.9373290E+06
    1.56   300.000   -2.142E+02    3.0233811E+06   -2.1063286E+03    6.6572706E+03    2.8863444E+06    2.1063760E+03    3.0233810E+06
    1.57   300.000   -2.151E+02    3.1202767E+06   -1.0047018E+03    2.1344677E+04    3.0325058E+06    1.0047485E+03    3.1202766E+06
    1.58   300.000   -2.160E+02    3.2289368E+06    2.1093374E+03    2.8904452E+04    3.1996143E+06   -2.1092926E+03    3.2289368E+06
    1.59   300.000   -2.168E+02    3.3494783E+06    7.2938481E+03    2.5560712E+04    3.3763487E+06   -7.2938061E+03    3.3494782E+06
    1.60   300.000   -2.177E+02    3.4808342E+06    1.3750702E+04    1.1458398E+04    3.5485414E+06   -1.3750664E+04    3.4808341E+06
    1.61   300.000   -2.186E+02    3.6205895E+06    2.0017164E+04   -9.5007192E+03    3.7026878E+06   -2.0017129E+04    3.6205894E+06
    1.62   300.000   -2.194E+02    3.7650086E+06    2.4514677E+04   -3.1375871E+04    3.8301321E+06   -2.4514644E+04    3.7650085E+06
    1.63   300.000   -2.203E+02    3.9093563E+06    2.6189754E+04   -4.8526772E+04    3.9298236E+06   -2.6189726E+04    3.9093562E+06
    1.64   300.000   -2.211E+02    4.0486374E+06    2.4868270E+04   -5.7566211E+04    4.0077721E+06   -2.4868246E+04    4.0486373E+06
    1.65   300.000   -2.219E+02    4.1783582E+06    2.1128957E+04   -5.8209526E+04    4.0731948E+06   -2.1128940E+04    4.1783581E+06
    1.66   300.000   -2.228E+02    4.2945962E+06    1.5906560E+04   -5.2827004E+04    4.1335546E+06   -1.5906551E+04    4.2945961E+06
    1.67   300.000   -2.236E+02    4.3934132E+06    1.0207887E+04   -4.5025775E+04    4.1914754E+06   -1.0207886E+04    4.3934131E+06
    1.68   300.000   -2.244E+02    4.4706605E+06    5.0513217E+03   -3.7910075E+04    4.2451051E+06   -5.0513276E+03    4.4706604E+06
    1.69   300.000   -2.252E+02    4.5230766E+06    1.4195767E+03   -3.2853592E+04    4.2911977E+06   -1.4195875E+03    4.5230766E+06
    1.70   300.000   -2.260E+02    4.5504007E+06    4.0440357E+01   -2.9506602E+04    4.3289998E+06   -4.0453536E+01    4.5504006E+06
    1.71   300.000   -2.267E+02    4.5573007E+06    1.0715643E+03   -2.6955002E+04    4.3630709E+06   -1.0715781E+03    4.5573007E+06
    1.72   300.000   -2.275E+02    4.5538667E+06    3.9408819E+03   -2.4968696E+04    4.4036066E+06   -3.9408959E+03    4.5538667E+06
    1.73   300.000   -2.283E+02    4.5539690E+06    7.5255287E+03   -2.4304897E+04    4.4639413E+06   -7.5255442E+03    4.5539691E+06
    1.74   300.000   -2.290E+02    4.5716065E+06    1.0621821E+04   -2.6005258E+04    4.5564054E+06   -1.0621841E+04    4.5716065E+06
    1.75   300.000   -2.298E+02    4.6163824E+06    1.2452729E+04   -3.0374756E+04    4.6881565E+06   -1.2452756E+04    4.6163825E+06
    1.76   300.000   -2.305E+02    4.6900739E+06    1.2901785E+04   -3.6372548E+04    4.8580096E+06   -1.2901820E+04    4.6900739E+06
    1.77   300.000   -2.313E+02    4.7861534E+06    1.2322145E+04   -4.1764342E+04    5.0550286E+06   -1.2322188E+04    4.7861535E+06
    1.78   300.000   -2.321E+02    4.8929064E+06    1.1103935E+04   -4.3805278E+04    5.2597646E+06   -1.1103985E+04    4.8929064E+06
    1.79   300.000   -2.328E+02    4.9989471E+06    9.3945063E+03   -3.9866193E+04    5.4484271E+06   -9.3945599E+03    4.9989472E+06
    1.80   300.000   -2.336E+02    5.0983389E+06    7.1741309E+03   -2.7834502E+04    5.5990072E+06   -7.1741835E+03    5.0983390E+06
    1.81   300.000   -2.344E+02    5.1923572E+06    4.5030964E+03   -6.8079527E+03    5.6976375E+06   -4.5031436E+03    5.1923573E+06
    1.82   300.000   -2.351E+02    5.2868849E+06    1.6506267E+03    2.1730040E+04    5.7430602E+06   -1.6506650E+03    5.2868851E+06
    1.83   300.000   -2.359E+02    5.3872011E+06   -9.5950805E+02    5.3222858E+04    5.7464695E+06    9.5948018E+02    5.3872012E+06
    1.84   300.000   -2.367E+02    5.4933672E+06   -2.8565880E+03    8.0984712E+04    5.7254648E+06    2.8565691E+03    5.4933673E+06
    1.85   300.000   -2.375E+02    5.5987513E+06   -3.5815374E+03    9.8585536E+04    5.6951616E+06    3.5815235E+03    5.5987514E+06
    1.86   300.000   -2.382E+02    5.6921489E+06   -2.7566289E+03    1.0227805E+05    5.6620830E+06    2.7566150E+03    5.6921490E+06
    1.87   300.000   -2.390E+02    5.7618933E+06   -2.9168945E+02    9.2228121E+04    5.6240125E+06    2.9167092E+02    5.7618934E+06
    1.88   300.000   -2.398E+02    5.7996938E+06    3.3614096E+03    7.2227348E+04    5.5747156E+06   -3.3614351E+03    5.7996938E+06
    1.89   300.000   -2.405E+02    5.8027584E+06    7.2245340E+03    4.8248764E+04    5.5104691E+06   -7.2245662E+03    5.8027584E+06
    1.90   300.000   -2.413E+02    5.7739627E+06    1.0199981E+04    2.6529933E+04    5.4353838E+06   -1.0200018E+04    5.7739627E+06
    1.91   300.000   -2.420E+02    5.7207690E+06    1.1543729E+04    1.1923712E+04    5.3629658E+06   -1.1543766E+04    5.7207690E+06
    1.92   300.000   -2.428E+02    5.6539221E+06    1.0984305E+04    6.9681913E+03    5.3127745E+06   -1.0984337E+04    5.6539221E+06
    1.93   300.000   -2.435E+02    5.5862175E+06    8.4542725E+03    1.1671062E+04    5.3036687E+06   -8.4542968E+03    5.5862174E+06
    1.94   300.000   -2.442E+02    5.5307325E+06    3.8500080E+03    2.3728786E+04    5.3469571E+06   -3.8500222E+03    5.5307324E+06
    1.95   300.000   -2.449E+02    5.4984521E+06   -2.7679821E+03    3.9052469E+04    5.4424378E+06    2.7679798E+03    5.4984521E+06
    1.96   300.000   -2.456E+02    5.4965383E+06   -1.0639753E+04    5.2827507E+04    5.5788369E+06    1.0639763E+04    5.4965383E+06
    1.97   300.000   -2.463E+02    5.5282088E+06   -1.8011050E+04    6.1124639E+04    5.7383362E+06    1.8011073E+04    5.5282088E+06
    1.98   300.000   -2.470E+02    5.5935191E+06   -2.2554518E+04    6.2293190E+04    5.9028065E+06    2.2554552E+04    5.5935191E+06
    1.99   300.000   -2.477E+02    5.6900488E+06   -2.2422808E+04    5.7273638E+04    6.0586230E+06    2.2422852E+04    5.6900488E+06
    2.00   300.000   -2.483E+02    5.8136029E+06   -1.7322855E+04    4.8955745E+04    6.1986391E+06    1.7322905E+04    5.8136029E+06
    2.01   300.000   -2.490E+02    5.9588791E+06   -8.9077919E+03    4.1297819E+04    6.3218483E+06    8.9078435E+03    5.9588792E+06
    2.02   300.000   -2.496E+02    6.1192026E+06   -1.7197712E+02    3.8411229E+04    6.4315992E+06    1.7202525E+02    6.1192027E+06
    2.03   300.000   -2.503E+02    6.2855066E+06    5.8738058E+03    4.3464250E+04    6.5332294E+06   -5.8737655E+03    6.2855068E+06
    2.04   300.000   -2.509E+02    6.4464182E+06    7.5343842E+03    5.7668636E+04    6.6321433E+06   -7.5343552E+03    6.4464183E+06
    2.05   300.000   -2.516E+02    6.5903797E+06    5.0364973E+03    7.9862673E+04    6.7324239E+06   -5.0364815E+03    6.5903799E+06
    2.06   300.000   -2.522E+02    6.7082035E+06    1.1262963E+02    1.0689346E+05    6.8350714E+06   -1.1262694E+02    6.7082037E+06
    2.07   300.000   -2.529E+02    6.7940018E+06   -5.0797628E+03    1.3451897E+05    6.9362383E+06    5.0797544E+03    6.7940020E+06
    2.08   300.000   -2.535E+02    6.8445328E+06   -8.9295471E+03    1.5828723E+05    7.0277759E+06    8.9295314E+03    6.8445330E+06
    2.09   300.000   -2.541E+02    6.8586190E+06   -1.0695258E+04    1.7409041E+05    7.1010769E+06    1.0695240E+04    6.8586192E+06
    2.10   300.000   -2.548E+02    6.8376798E+06   -1.0330571E+04    1.7853429E+05    7.1514276E+06    1.0330556E+04    6.8376799E+06
    2.11   300.000   -2.554E+02    6.7867178E+06   -8.2629859E+03    1.6941648E+05    7.1791422E+06    8.2629798E+03    6.7867179E+06
    2.12   300.000   -2.561E+02    6.7143458E+06   -5.2012652E+03    1.4644238E+05    7.1871477E+06    5.2012705E+03    6.7143459E+06
    2.13   300.000   -2.567E+02    6.6311528E+06   -1.8040968E+03    1.1183464E+05    7.1777469E+06    1.8041139E+03    6.6311528E+06
    2.14   300.000   -2.573E+02    6.5468052E+06    1.6130336E+03    7.0161740E+04    7.1507348E+06   -1.6130072E+03    6.5468052E+06
    2.15   300.000   -2.580E+02    6.4671549E+06    4.9597165E+03    2.7197704E+04    7.1032513E+06   -4.9596852E+03    6.4671549E+06
    2.16   300.000   -2.586E+02    6.3930457E+06    7.9481063E+03   -1.1630853E+04    7.0312560E+06   -7.9480754E+03    6.3930456E+06
    2.17   300.000   -2.592E+02    6.3216447E+06    9.9291114E+03   -4.2564331E+04    6.9323359E+06   -9.9290852E+03    6.3216446E+06
    2.18   300.000   -2.598E+02    6.2492369E+06    1.0248111E+04   -6.4304349E+04    6.8084918E+06   -1.0248091E+04    6.2492369E+06
    2.19   300.000   -2.604E+02    6.1733169E+06    8.7568980E+03   -7.8134257E+04    6.6666413E+06   -8.7568847E+03    6.1733169E+06
    2.20   300.000   -2.610E+02    6.0925557E+06    5.9779800E+03   -8.7132716E+04    6.5155534E+06   -5.9779695E+03    6.0925556E+06
    2.21   300.000   -2.615E+02    6.0051964E+06    2.8228976E+03   -9.4523108E+04    6.3607346E+06   -2.8228857E+03    6.0051963E+06
    2.22   300.000   -2.621E+02    5.9081158E+06    1.6898559E+02   -1.0197814E+05    6.2009653E+06   -1.6896865E+02    5.9081157E+06
    2.23   300.000   -2.626E+02    5.7981694E+06   -1.4346677E+03   -1.0908734E+05    6.0293704E+06    1.4346918E+03    5.7981694E+06
    2.24   300.000   -2.632E+02    5.6747626E+06   -1.9119742E+03   -1.1434277E+05    5.8386440E+06    1.9120057E+03    5.6747625E+06
    2.25   300.000   -2.637E+02    5.5414742E+06   -1.6676248E+03   -1.1660771E+05    5.6273913E+06    1.6676627E+03    5.5414742E+06
    2.26   300.000   -2.642E+02    5.4063368E+06   -1.4081670E+03   -1.1586758E+05    5.4041401E+06    1.4082100E+03    5.4063368E+06
    2.27   300.000   -2.647E+02    5.2814249E+06   -1.8277332E+03   -1.1322681E+05    5.1867318E+06    1.8277803E+03    5.2814249E+06
    2.28   300.000   -2.652E+02    5.1808848E+06   -3.3032936E+03   -1.1063846E+05    4.9969541E+06    3.3033442E+03    5.1808847E+06
    2.29   300.000   -2.657E+02    5.1161683E+06   -5.6855717E+03   -1.1018052E+05    4.8529001E+06    5.6856256E+03    5.1161682E+06
    2.30   300.000   -2.662E+02    5.0905757E+06   -8.2353089E+03   -1.1261405E+05    4.7631805E+06    8.2353653E+03    5.0905757E+06
    2.31   300.000   -2.666E+02    5.0979669E+06   -9.8404602E+03   -1.1610391E+05    4.7261695E+06    9.8405179E+03    5.0979668E+06
    2.32   300.000   -2.671E+02    5.1277153E+06   -9.5921982E+03   -1.1651597E+05    4.7341168E+06    9.5922554E+03    5.1277153E+06
    2.33   300.000   -2.676E+02    5.1721407E+06   -7.4099766E+03   -1.0935677E+05    4.7787830E+06    7.4100315E+03    5.1721407E+06
    2.34   300.000   -2.681E+02    5.2304990E+06   -4.1421432E+03   -9.1796366E+04    4.8549095E+06    4.1421945E+03    5.2304990E+06
    2.35   300.000   -2.686E+02    5.3071039E+06   -9.5440565E+02   -6.3549759E+04    4.9602214E+06    9.5445311E+02    5.3071039E+06
    2.36   300.000   -2.691E+02    5.4059011E+06    1.4894589E+03   -2.6861149E+04    5.0930856E+06   -1.4894145E+03    5.4059011E+06
    2.37   300.000   -2.695E+02    5.5254332E+06    3.3702376E+03    1.3996237E+04    5.2492997E+06   -3.3701944E+03    5.5254332E+06
    2.38   300.000   -2.700E+02    5.6565883E+06    5.3954556E+03    5.3987366E+04    5.4186914E+06   -5.3954121E+03    5.6565883E+06
    2.39   300.000   -2.705E+02    5.7834121E+06    8.1976726E+03    8.9058933E+04    5.5827408E+06   -8.1976278E+03    5.7834122E+06
    2.40   300.000   -2.710E+02    5.8862196E+06    1.1892434E+04    1.1694535E+05    5.7160330E+06   -1.1892388E+04    5.8862196E+06
    2.41   300.000   -2.715E+02    5.9460315E+06    1.5965645E+04    1.3626110E+05    5.7932715E+06   -1.5965599E+04    5.9460316E+06
    2.42   300.000   -2.719E+02    5.9493025E+06    1.9490020E+04    1.4505634E+05    5.7988241E+06   -1.9489977E+04    5.9493026E+06
    2.43   300.000   -2.724E+02    5.8916927E+06    2.1580261E+04    1.4073477E+05    5.7325243E+06   -2.1580221E+04    5.8916928E+06
    2.44   300.000   -2.729E+02    5.7793316E+06    2.1798022E+04    1.2185467E+05    5.6079665E+06   -2.1797989E+04    5.7793317E+06
    2.45   300.000   -2.734E+02    5.6263727E+06    2.0194649E+04    9.0444856E+04    5.4450192E+06   -2.0194623E+04    5.6263728E+06
    2.46   300.000   -2.739E+02    5.4495533E+06    1.7057580E+04    5.2859468E+04    5.2616246E+06   -1.7057562E+04    5.4495534E+06
    2.47   300.000   -2.743E+02    5.2629602E+06    1.2741078E+04    1.8247815E+04    5.0696380E+06   -1.2741066E+04    5.2629603E+06
    2.48   300.000   -2.748E+02    5.0765841E+06    7.7478419E+03   -4.5698600E+03    4.8763159E+06   -7.7478362E+03    5.0765842E+06
    2.49   300.000   -2.753E+02    4.8993357E+06    2.8262445E+03   -1.0066310E+04    4.6889691E+06   -2.8262430E+03    4.8993358E+06
    2.50   300.000   -2.758E+02    4.7431498E+06   -1.1629871E+03    2.5858869E+03    4.5183981E+06    1.1629859E+03    4.7431499E+06
    2.51   300.000   -2.763E+02    4.6234982E+06   -3.5382240E+03    2.9869480E+04    4.3786552E+06    3.5382218E+03    4.6234983E+06
    2.52   300.000   -2.767E+02    4.5548477E+06   -3.9653912E+03    6.5217547E+04    4.2839381E+06    3.9653893E+03    4.5548478E+06
    2.53   300.000   -2.772E+02    4.5442317E+06   -2.3475051E+03    1.0040600E+05    4.2446361E+06    2.3475046E+03    4.5442318E+06
    2.54   300.000   -2.777E+02    4.5873267E+06    1.3875066E+03    1.2693827E+05    4.2636655E+06   -1.3875049E+03    4.5873268E+06
    2.55   300.000   -2.781E+02    4.6687840E+06    7.2913543E+03    1.3775137E+05    4.3334896E+06   -7.2913498E+03    4.6687840E+06
    2.56   300.000   -2.786E+02    4.7659860E+06    1.5155234E+04    1.2920952E+05    4.4350003E+06   -1.5155226E+04    4.7659861E+06
    2.57   300.000   -2.790E+02    4.8549743E+06    2.4305032E+04    1.0263564E+05    4.5407532E+06   -2.4305021E+04    4.8549743E+06
    2.58   300.000   -2.795E+02    4.9170652E+06    3.3648457E+04    6.4324713E+04    4.6237140E+06   -3.3648442E+04    4.9170652E+06
    2.59   300.000   -2.799E+02    4.9437161E+06    4.1880104E+04    2.3645411E+04    4.6679916E+06   -4.1880086E+04    4.9437161E+06
    2.60   300.000   -2.804E+02    4.9377674E+06    4.7677076E+04   -9.9476945E+03    4.6750966E+06   -4.7677057E+04    4.9377673E+06
    2.61   300.000   -2.808E+02    4.9117277E+06    4.9919509E+04   -2.9708739E+04    4.6622556E+06   -4.9919492E+04    4.9117276E+06
    2.62   300.000   -2.812E+02    4.8850161E+06    4.8032136E+04   -3.3319236E+04    4.6549260E+06   -4.8032123E+04    4.8850160E+06
    2.63   300.000   -2.816E+02    4.8803503E+06    4.2338882E+04   -2.2941535E+04    4.6782946E+06   -4.2338873E+04    4.8803502E+06
    2.64   300.000   -2.820E+02    4.9179860E+06    3.4139184E+04   -3.5444420E+03    4.7511386E+06   -3.4139180E+04    4.9179859E+06
    2.65   300.000   -2.825E+02    5.0084119E+06    2.5318281E+04    1.9423289E+04    4.8826085E+06   -2.5318279E+04    5.0084119E+06
    2.66   300.000   -2.829E+02    5.1473659E+06    1.7647999E+04    4.1550115E+04    5.0712252E+06   -1.7647998E+04    5.1473659E+06
    2.67   300.000   -2.833E+02    5.3174462E+06    1.2194194E+04    5.9793131E+04    5.3062578E+06   -1.2194190E+04    5.3174462E+06
    2.68   300.000   -2.837E+02    5.4969644E+06    9.1628995E+03    7.2403971E+04    5.5723532E+06   -9.1628934E+03    5.4969645E+06
    2.69   300.000   -2.842E+02    5.6713391E+06    8.1742184E+03    7.9054340E+04    5.8565474E+06   -8.1742095E+03    5.6713391E+06
    2.70   300.000   -2.846E+02    5.8396004E+06    8.6805048E+03    8.0784226E+04    6.1535905E+06   -8.6804944E+03    5.8396004E+06
    2.71   300.000   -2.851E+02    6.0116723E+06    1.0267691E+04    7.9259338E+04    6.4647858E+06   -1.0267681E+04    6.0116724E+06
    2.72   300.000   -2.856E+02    6.1988789E+06    1.2766595E+04    7.5789146E+04    6.7900156E+06   -1.2766588E+04    6.1988790E+06
    2.73   300.000   -2.861E+02    6.4045279E+06    1.6206529E+04    7.0993793E+04    7.1188822E+06   -1.6206526E+04    6.4045280E+06
    2.74   300.000   -2.866E+02    6.6200442E+06    2.0661801E+04    6.5110005E+04    7.4277683E+06   -2.0661805E+04    6.6200443E+06
    2.75   300.000   -2.871E+02    6.8270197E+06    2.6073984E+04    5.8164192E+04    7.6840577E+06   -2.6073993E+04    6.8270198E+06
    2.76   300.000   -2.876E+02    7.0017479E+06    3.2147586E+04    4.9786514E+04    7.8538740E+06   -3.2147599E+04    7.0017480E+06
    2.77   300.000   -2.881E+02    7.1194845E+06    3.8369857E+04    3.9211317E+04    7.9099324E+06   -3.8369873E+04    7.1194846E+06
    2.78   300.000   -2.886E+02    7.1583539E+06    4.4121634E+04    2.5809649E+04    7.8376404E+06   -4.4121650E+04    7.1583540E+06
    2.79   300.000   -2.892E+02    7.1032127E+06    4.8784115E+04    9.8307013E+03    7.6374443E+06   -4.8784130E+04    7.1032127E+06
    2.80   300.000   -2.897E+02    6.9487341E+06    5.1790165E+04   -7.2076840E+03    7.3229520E+06   -5.1790179E+04    6.9487341E+06
    2.81   300.000   -2.902E+02    6.7012534E+06    5.2677172E+04   -2.2817169E+04    6.9179561E+06   -5.2677185E+04    6.7012533E+06
    2.82   300.000   -2.907E+02    6.3790457E+06    5.1213252E+04   -3.4522814E+04    6.4549793E+06   -5.1213264E+04    6.3790456E+06
    2.83   300.000   -2.912E+02    6.0097125E+06    4.7565650E+04   -4.1102984E+04    5.9730213E+06   -4.7565663E+04    6.0097124E+06
    2.84   300.000   -2.916E+02    5.6242850E+06    4.2370791E+04   -4.3280015E+04    5.5109793E+06   -4.2370803E+04    5.6242849E+06
    2.85   300.000   -2.921E+02    5.2504696E+06    3.6557738E+04   -4.3284957E+04    5.0982802E+06   -3.6557751E+04    5.2504695E+06
    2.86   300.000   -2.925E+02    4.9080559E+06    3.0937764E+04   -4.3586904E+04    4.7485055E+06   -3.0937775E+04    4.9080558E+06
    2.87   300.000   -2.930E+02    4.6075244E+06    2.5816021E+04   -4.5687146E+04    4.4597750E+06   -2.5816030E+04    4.6075244E+06
    2.88   300.000   -2.935E+02    4.3512420E+06    2.0932049E+04   -4.9645734E+04    4.2201977E+06   -2.0932055E+04    4.3512420E+06
    2.89   300.000   -2.939E+02    4.1359837E+06    1.5774396E+04   -5.4400014E+04    4.0140684E+06   -1.5774400E+04    4.1359837E+06
    2.90   300.000   -2.944E+02    3.9553985E+06    1.0028249E+04   -5.8536307E+04    3.8265777E+06   -1.0028252E+04    3.9553985E+06
    2.91   300.000   -2.949E+02    3.8018660E+06    3.9032655E+03   -6.1075192E+04    3.6475769E+06   -3.9032685E+03    3.8018660E+06
    2.92   300.000   -2.953E+02    3.6680970E+06   -1.7686639E+03   -6.1961646E+04    3.4745255E+06    1.7686597E+03    3.6680971E+06
    2.93   300.000   -2.958E+02    3.5484476E+06   -5.7395046E+03   -6.2169066E+04    3.3127798E+06    5.7394985E+03    3.5484477E+06
    2.94   300.000   -2.963E+02    3.4395444E+06   -6.9013517E+03   -6.3446856E+04    3.1721272E+06    6.9013436E+03    3.4395445E+06
    2.95   300.000   -2.968E+02    3.3407242E+06   -4.9720768E+03   -6.7717238E+04    3.0616783E+06    4.9720668E+03    3.3407242E+06
    2.96   300.000   -2.973E+02    3.2549212E+06   -7.9651857E+02   -7.6098927E+04    2.9864153E+06    7.9650701E+02    3.2549213E+06
    2.97   300.000   -2.978E+02    3.1888930E+06    4.0432111E+03   -8.7812659E+04    2.9466332E+06   -4.0432233E+03    3.1888931E+06
    2.98   300.000   -2.982E+02    3.1510851E+06    7.9853037E+03   -9.9759430E+04    2.9394472E+06   -7.9853155E+03    3.1510852E+06
    2.99   300.000   -2.987E+02    3.1476734E+06    1.0025136E+04   -1.0750497E+05    2.9611241E+06   -1.0025147E+04    3.1476734E+06
    3.00   300.000   -2.992E+02    3.1794095E+06    9.8300823E+03   -1.0727086E+05    3.0088341E+06   -9.8300904E+03    3.1794096E+06
    3.01   300.000   -2.997E+02    3.2411727E+06    7.6439505E+03   -9.7545453E+04    3.0803975E+06   -7.6439566E+03    3.2411727E+06
    3.02   300.000   -3.002E+02    3.3239662E+06    4.1717039E+03   -7.9386100E+04    3.1720373E+06   -4.1717090E+03    3.3239662E+06
    3.03   300.000   -3.007E+02    3.4178962E+06    4.0230608E+02   -5.5615727E+04    3.2762850E+06   -4.0231179E+02    3.4178962E+06
    3.04   300.000   -3.012E+02    3.5148355E+06   -2.7232493E+03   -2.9594411E+04    3.3824590E+06    2.7232409E+03    3.5148355E+06
    3.05   300.000   -3.017E+02    3.6101187E+06   -4.6900728E+03   -4.1874278E+03    3.4799950E+06    4.6900602E+03    3.6101188E+06
    3.06   300.000   -3.023E+02    3.7031450E+06   -5.5905220E+03    1.8608108E+04    3.5626051E+06    5.5905045E+03    3.7031450E+06
    3.07   300.000   -3.028E+02    3.7970094E+06   -6.0021587E+03    3.7368008E+04    3.6308157E+06    6.0021369E+03    3.7970095E+06
    3.08   300.000   -3.033E+02    3.8973579E+06   -6.6652731E+03    5.0803827E+04    3.6917908E+06    6.6652483E+03    3.8973580E+06
    3.09   300.000   -3.038E+02    4.0109088E+06   -8.1385192E+03    5.7704028E+04    3.7570999E+06    8.1384932E+03    4.0109088E+06
    3.10   300.000   -3.043E+02    4.1441695E+06   -1.0542724E+04    5.7307749E+04    3.8396456E+06    1.0542699E+04    4.1441696E+06
    3.11   300.000   -3.048E+02    4.3022033E+06   -1.3401449E+04    4.9800706E+04    3.9501935E+06    1.3401425E+04    4.3022033E+06
    3.12   300.000   -3.054E+02    4.4866805E+06   -1.5631777E+04    3.6563156E+04    4.0936551E+06    1.5631755E+04    4.4866805E+06
    3.13   300.000   -3.059E+02    4.6931138E+06   -1.5871356E+04    1.9995265E+04    4.2661576E+06    1.5871338E+04    4.6931138E+06
    3.14   300.000   -3.064E+02    4.9086240E+06   -1.3190575E+04    3.0814851E+03    4.4543629E+06    1.3190560E+04    4.9086240E+06
    3.15   300.000   -3.069E+02    5.1124054E+06   -7.7911754E+03   -1.1009849E+04    4.6377918E+06    7.7911637E+03    5.1124054E+06
    3.16   300.000   -3.075E+02    5.2803766E+06   -1.1007668E+03   -1.9251502E+04    4.7941145E+06    1.1007586E+03    5.2803767E+06
    3.17   300.000   -3.080E+02    5.3931821E+06    4.9129011E+03   -1.9202824E+04    4.9063870E+06   -4.9129062E+03    5.3931821E+06
    3.18   300.000   -3.085E+02    5.4439214E+06    8.7892002E+03   -9.6168621E+03    4.9692740E+06   -8.7892029E+03    5.4439214E+06
    3.19   300.000   -3.091E+02    5.4411887E+06    1.0301282E+04    9.0224939E+03    4.9902533E+06   -1.0301284E+04    5.4411888E+06
    3.20   300.000   -3.096E+02    5.4053619E+06    1.0377672E+04    3.4337861E+04    4.9843664E+06   -1.0377676E+04    5.4053620E+06
    3.21   300.000   -3.101E+02    5.3600511E+06    1.0316735E+04    6.2562250E+04    4.9659544E+06   -1.0316742E+04    5.3600511E+06
    3.22   300.000   -3.106E+02    5.3235543E+06    1.0930268E+04    8.9787595E+04    4.9432890E+06   -1.0930281E+04    5.3235543E+06
    3.23   300.000   -3.111E+02    5.3050710E+06    1.2188910E+04    1.1334686E+05    4.9194123E+06   -1.2188931E+04    5.3050710E+06
    3.24   300.000   -3.116E+02    5.3068073E+06    1.3404475E+04    1.3223278E+05    4.8970772E+06   -1.3404504E+04    5.3068073E+06
    3.25   300.000   -3.120E+02    5.3284548E+06    1.3654410E+04    1.4614959E+05    4.8823367E+06   -1.3654446E+04    5.3284548E+06
    3.26   300.000   -3.125E+02    5.3693377E+06    1.2233806E+04    1.5418195E+05    4.8831341E+06   -1.2233848E+04    5.3693377E+06
    3.27   300.000   -3.130E+02    5.4268704E+06    9.0262023E+03    1.5449981E+05    4.9041119E+06   -9.0262491E+03    5.4268704E+06
    3.28   300.000   -3.134E+02    5.4935320E+06    4.6496202E+03    1.4542398E+05    4.9417049E+06   -4.6496699E+03    5.4935320E+06
    3.29   300.000   -3.139E+02    5.5549864E+06    2.6323985E+02    1.2689255E+05    4.9827116E+06   -2.6329046E+02    5.5549864E+06
    3.30   300.000   -3.143E+02    5.5912809E+06   -2.8888686E+03    1.0118639E+05    5.0075451E+06    2.8888193E+03    5.5912809E+06
    3.31   300.000   -3.148E+02    5.5828107E+06   -3.9624821E+03    7.2429945E+04    4.9977793E+06    3.9624361E+03    5.5828106E+06
    3.32   300.000   -3.152E+02    5.5199146E+06   -2.8216787E+03    4.5095605E+04    4.9449429E+06    2.8216373E+03    5.5199146E+06
    3.33   300.000   -3.156E+02    5.4097499E+06   -7.4706468E+01    2.2345410E+04    4.8547838E+06    7.4669792E+01    5.4097498E+06
    3.34   300.000   -3.160E+02    5.2740116E+06    3.1527345E+03    5.3318203E+03    4.7436517E+06   -3.1527673E+03    5.2740115E+06
    3.35   300.000   -3.164E+02    5.1388059E+06    5.5909317E+03   -6.1032655E+03    4.6307975E+06   -5.5909618E+03    5.1388059E+06
    3.36   300.000   -3.168E+02    5.0245396E+06    6.2116359E+03   -1.2161632E+04    4.5333386E+06   -6.2116645E+03    5.0245396E+06
    3.37   300.000   -3.172E+02    4.9418047E+06    4.5586077E+03   -1.2499910E+04    4.4657180E+06   -4.5586349E+03    4.9418047E+06
    3.38   300.000   -3.176E+02    4.8929528E+06    9.6311075E+02   -6.7945610E+03    4.4398581E+06   -9.6313552E+02    4.8929529E+06
    3.39   300.000   -3.179E+02    4.8754005E+06   -3.5035871E+03    4.0600769E+03    4.4623194E+06    3.5035668E+03    4.8754006E+06
    3.40   300.000   -3.183E+02    4.8834359E+06   -7.4681275E+03    1.7216651E+04    4.5291896E+06    7.4681137E+03    4.8834360E+06
    3.41   300.000   -3.187E+02    4.9082788E+06   -9.9333618E+03    2.8470803E+04    4.6234799E+06    9.9333559E+03    4.9082789E+06
    3.42   300.000   -3.190E+02    4.9385810E+06   -1.0766992E+04    3.3874552E+04    4.7196821E+06    1.0766994E+04    4.9385811E+06
    3.43   300.000   -3.194E+02    4.9633693E+06   -1.0664240E+04    3.1077505E+04    4.7945240E+06    1.0664249E+04    4.9633694E+06
    3.44   300.000   -3.197E+02    4.9765731E+06   -1.0673835E+04    1.9538805E+04    4.8365541E+06    1.0673848E+04    4.9765732E+06
    3.45   300.000   -3.200E+02    4.9794734E+06   -1.1696443E+04   -1.1024984E+02    4.8478710E+06    1.1696456E+04    4.9794734E+06
    3.46   300.000   -3.203E+02    4.9782242E+06   -1.4250108E+04   -2.6723312E+04    4.8389687E+06    1.4250118E+04    4.9782242E+06
    3.47   300.000   -3.206E+02    4.9779193E+06   -1.8439388E+04   -5.8668266E+04    4.8228878E+06    1.8439392E+04    4.9779193E+06
    3.48   300.000   -3.209E+02    4.9778535E+06   -2.3915123E+04   -9.3173949E+04    4.8122683E+06    2.3915121E+04    4.9778535E+06
    3.49   300.000   -3.212E+02    4.9715396E+06   -2.9780161E+04   -1.2579803E+05    4.8180558E+06    2.9780151E+04    4.9715396E+06
    3.50   300.000   -3.215E+02    4.9512961E+06   -3.4618336E+04   -1.5114998E+05    4.8482476E+06    3.4618319E+04    4.9512961E+06
    3.51   300.000   -3.217E+02    4.9140693E+06   -3.6845907E+04   -1.6483266E+05    4.9076186E+06    3.6845883E+04    4.9140693E+06
    3.52   300.000   -3.220E+02    4.8646279E+06   -3.5357029E+04   -1.6502703E+05    4.9992525E+06    3.5357001E+04    4.8646278E+06
    3.53   300.000   -3.222E+02    4.8141182E+06   -3.0114546E+04   -1.5253987E+05    5.1253336E+06    3.0114517E+04    4.8141181E+06
    3.54   300.000   -3.225E+02    4.7745978E+06   -2.2208643E+04   -1.2997711E+05    5.2832642E+06    2.2208615E+04    4.7745977E+06
    3.55   300.000   -3.227E+02    4.7524237E+06   -1.3246609E+04   -1.0118489E+05    5.4574714E+06    1.3246586E+04    4.7524236E+06
    3.56   300.000   -3.230E+02    4.7443316E+06   -4.5630620E+03   -7.0798646E+04    5.6138010E+06    4.5630452E+03    4.7443315E+06
    3.57   300.000   -3.232E+02    4.7387855E+06    3.1056344E+03   -4.3151560E+04    5.7046684E+06   -3.1056437E+03    4.7387854E+06
    3.58   300.000   -3.235E+02    4.7220039E+06    9.4032282E+03   -2.0874924E+04    5.6858918E+06   -9.4032301E+03    4.7220038E+06
    3.59   300.000   -3.237E+02    4.6849836E+06    1.4051337E+04   -4.3765929E+03    5.5360441E+06   -1.4051334E+04    4.6849835E+06
    3.60   300.000   -3.240E+02    4.6270687E+06    1.6811981E+04    7.2804454E+03    5.2659332E+06   -1.6811974E+04    4.6270686E+06
    3.61   300.000   -3.243E+02    4.5540389E+06    1.7604944E+04    1.4834109E+04    4.9130988E+06   -1.7604937E+04    4.5540388E+06
    3.62   300.000   -3.246E+02    4.4729162E+06    1.6537108E+04    1.7918005E+04    4.5268811E+06   -1.6537100E+04    4.4729161E+06
    3.63   300.000   -3.248E+02    4.3879658E+06    1.3852978E+04    1.5550155E+04    4.1535089E+06   -1.3852968E+04    4.3879658E+06
    3.64   300.000   -3.251E+02    4.3002285E+06    9.9290467E+03    7.4970459E+03    3.8266690E+06   -9.9290326E+03    4.3002285E+06
    3.65   300.000   -3.254E+02    4.2092538E+06    5.2729027E+03   -4.7973665E+03    3.5641899E+06   -5.2728824E+03    4.2092538E+06
    3.66   300.000   -3.257E+02    4.1149400E+06    4.3026055E+02   -1.8521322E+04    3.3696389E+06   -4.3023310E+02    4.1149400E+06
    3.67   300.000   -3.260E+02    4.0188692E+06   -4.1404106E+03   -3.0720931E+04    3.2368297E+06    4.1404443E+03    4.0188692E+06
    3.68   300.000   -3.263E+02    3.9248044E+06   -8.0764795E+03   -3.9535835E+04    3.1543733E+06    8.0765172E+03    3.9248045E+06
    3.69   300.000   -3.266E+02    3.8374236E+06   -1.0997173E+04   -4.4799939E+04    3.1082558E+06    1.0997211E+04    3.8374236E+06
    3.70   300.000   -3.269E+02    3.7595724E+06   -1.2459517E+04   -4.7938880E+04    3.0830006E+06    1.2459553E+04    3.7595724E+06
    3.71   300.000   -3.273E+02    3.6902179E+06   -1.2142120E+04   -5.1413699E+04    3.0632783E+06    1.2142152E+04    3.6902179E+06
    3.72   300.000   -3.276E+02    3.6245784E+06   -1.0120646E+04   -5.7914093E+04    3.0364161E+06    1.0120672E+04    3.6245784E+06
    3.73   300.000   -3.279E+02    3.5555361E+06   -6.8845527E+03   -6.9390008E+04    2.9944840E+06    6.8845735E+03    3.5555360E+06
    3.74   300.000   -3.282E+02    3.4751414E+06   -2.9852400E+03   -8.6121569E+04    2.9349448E+06    2.9852560E+03    3.4751414E+06
    3.75   300.000   -3.285E+02    3.3767361E+06    1.3011310E+03   -1.0628734E+05    2.8602937E+06   -1.3011187E+03    3.3767360E+06
    3.76   300.000   -3.288E+02    3.2584310E+06    5.8908173E+03   -1.2645985E+05    2.7774377E+06   -5.8908077E+03    3.2584309E+06
    3.77   300.000   -3.291E+02    3.1264247E+06    1.0549281E+04   -1.4283649E+05    2.6966791E+06   -1.0549273E+04    3.1264246E+06
    3.78   300.000   -3.294E+02    2.9951836E+06    1.4778684E+04   -1.5232335E+05    2.6297201E+06   -1.4778679E+04    2.9951835E+06
    3.79   300.000   -3.297E+02    2.8833389E+06    1.8075407E+04   -1.5283103E+05    2.5867474E+06   -1.8075405E+04    2.8833388E+06
    3.80   300.000   -3.300E+02    2.8074444E+06    2.0233004E+04   -1.4315270E+05    2.5736331E+06   -2.0233007E+04    2.8074444E+06
    3.81   300.000   -3.303E+02    2.7771372E+06    2.1383546E+04   -1.2319057E+05    2.5908641E+06   -2.1383555E+04    2.7771372E+06
    3.82   300.000   -3.305E+02    2.7939126E+06    2.1799993E+04   -9.4645559E+04    2.6352573E+06   -2.1800009E+04    2.7939126E+06
    3.83   300.000   -3.308E+02    2.8532606E+06    2.1678729E+04   -6.1573167E+04    2.7034335E+06   -2.1678753E+04    2.8532606E+06
    3.84   300.000   -3.311E+02    2.9479224E+06    2.1091336E+04   -3.0144187E+04    2.7941696E+06   -2.1091369E+04    2.9479224E+06
    3.85   300.000   -3.314E+02    3.0694886E+06    2.0119190E+04   -7.3375773E+03    2.9074201E+06   -2.0119233E+04    3.0694886E+06
    3.86   300.000   -3.317E+02    3.2070314E+06    1.8971021E+04    1.2101960E+03    3.0402233E+06   -1.8971074E+04    3.2070313E+06
    3.87   300.000   -3.320E+02    3.3444490E+06    1.7920003E+04   -6.4294377E+03    3.1818461E+06   -1.7920067E+04    3.3444490E+06
    3.88   300.000   -3.323E+02    3.4604725E+06    1.7198411E+04   -2.6791376E+04    3.3120879E+06   -1.7198483E+04    3.4604725E+06
    3.89   300.000   -3.326E+02    3.5341844E+06    1.7057680E+04   -5.1155538E+04    3.4066072E+06   -1.7057757E+04    3.5341844E+06
    3.90   300.000   -3.329E+02    3.5541505E+06    1.7875626E+04   -6.8430779E+04    3.4486746E+06   -1.7875705E+04    3.5541505E+06
    3.91   300.000   -3.332E+02    3.5248226E+06    2.0017118E+04   -7.0154833E+04    3.4398174E+06   -2.0017194E+04    3.5248226E+06
    3.92   300.000   -3.335E+02    3.4648779E+06    2.3484787E+04   -5.4849924E+04    3.4004349E+06   -2.3484858E+04    3.4648779E+06
    3.93   300.000   -3.338E+02    3.3985012E+06    2.7771954E+04   -2.8722788E+04    3.3592866E+06   -2.7772019E+04    3.3985011E+06
    3.94   300.000   -3.341E+02    3.3459973E+06    3.2158669E+04   -2.2340633E+03    3.3400710E+06   -3.2158725E+04    3.3459972E+06
    3.95   300.000   -3.344E+02    3.3192375E+06    3.6151592E+04    1.4972425E+04    3.3542812E+06   -3.6151642E+04    3.3192375E+06
    3.96   300.000   -3.347E+02    3.3222252E+06    3.9565443E+04    1.7660832E+04    3.4024035E+06   -3.9565487E+04    3.3222251E+06
    3.97   300.000   -3.351E+02    3.3537252E+06    4.2165620E+04    5.7797619E+03    3.4790645E+06   -4.2165659E+04    3.3537251E+06
    3.98   300.000   -3.354E+02    3.4099841E+06    4.3343877E+04   -1.6829017E+04    3.5778916E+06   -4.3343912E+04    3.4099840E+06
    3.99   300.000   -3.357E+02    3.4877882E+06    4.2268467E+04   -4.4386368E+04    3.6956742E+06   -4.2268499E+04    3.4877882E+06
    4.00   300.000   -3.360E+02    3.5878395E+06    3.8354107E+04   -7.1023371E+04    3.8365082E+06   -3.8354137E+04    3.5878395E+06
    4.01   300.000   -3.363E+02    3.7166144E+06    3.1550179E+04   -9.2402463E+04    4.0144018E+06   -3.1550207E+04    3.7166144E+06
    4.02   300.000   -3.366E+02    3.8851097E+06    2.2268087E+04   -1.0684001E+05    4.2518857E+06   -2.2268114E+04    3.8851096E+06
    4.03   300.000   -3.370E+02    4.1054816E+06    1.1223514E+04   -1.1529761E+05    4.5745097E+06   -1.1223540E+04    4.1054815E+06
    4.04   300.000   -3.373E+02    4.3882849E+06   -5.5889408E+02   -1.2017874E+05    5.0039402E+06    5.5886686E+02    4.3882849E+06
    4.05   300.000   -3.376E+02    4.7420275E+06   -1.1752394E+04   -1.2388471E+05    5.5526775E+06    1.1752364E+04    4.7420275E+06
    4.06   300.000   -3.380E+02    5.1742788E+06   -2.1113617E+04   -1.2800958E+05    6.2211238E+06    2.1113582E+04    5.1742788E+06
    4.07   300.000   -3.384E+02    5.6916718E+06   -2.8217807E+04   -1.3296666E+05    6.9954188E+06    2.8217766E+04    5.6916717E+06
    4.08   300.000   -3.387E+02    6.2966935E+06   -3.3957558E+04   -1.3742636E+05    7.8447557E+06    3.3957510E+04    6.2966934E+06
    4.09   300.000   -3.391E+02    6.9821616E+06   -4.0194679E+04   -1.3790716E+05    8.7195955E+06    4.0194626E+04    6.9821616E+06
    4.10   300.000   -3.395E+02    7.7270026E+06   -4.8575009E+04   -1.2964414E+05    9.5542777E+06    4.8574951E+04    7.7270026E+06
    4.11   300.000   -3.399E+02    8.4969792E+06   -5.9260658E+04   -1.0883243E+05    1.0276730E+07    5.9260599E+04    8.4969792E+06
    4.12   300.000   -3.403E+02    9.2511915E+06   -7.0514419E+04   -7.4708919E+04    1.0824032E+07    7.0514361E+04    9.2511914E+06
    4.13   300.000   -3.408E+02    9.9508339E+06   -7.9408176E+04   -3.0102754E+04    1.1157378E+07    7.9408121E+04    9.9508338E+06
    4.14   300.000   -3.412E+02    1.0564496E+07   -8.3073859E+04    1.9375013E+04    1.1269235E+07    8.3073810E+04    1.0564496E+07
    4.15   300.000   -3.416E+02    1.1067763E+07   -7.9739386E+04    6.6648841E+04    1.1181856E+07    7.9739342E+04    1.1067763E+07
    4.16   300.000   -3.421E+02    1.1440721E+07   -6.9187889E+04    1.0462703E+05    1.0941674E+07    6.9187850E+04    1.1440721E+07
    4.17   300.000   -3.425E+02    1.1668019E+07   -5.2650155E+04    1.2783676E+05    1.0610816E+07    5.2650119E+04    1.1668018E+07
    4.18   300.000   -3.429E+02    1.1742029E+07   -3.2352820E+04    1.3403934E+05    1.0252754E+07    3.2352788E+04    1.1742029E+07
    4.19   300.000   -3.433E+02    1.1666498E+07   -1.0997442E+04    1.2498413E+05    9.9145338E+06    1.0997413E+04    1.1666498E+07
    4.20   300.000   -3.438E+02    1.1458095E+07    8.7442811E+03    1.0542689E+05    9.6156278E+06   -8.7443064E+03    1.1458095E+07
    4.21   300.000   -3.442E+02    1.1144645E+07    2.4768365E+04    8.0746576E+04    9.3500294E+06   -2.4768387E+04    1.1144645E+07
    4.22   300.000   -3.446E+02    1.0760344E+07    3.5974719E+04    5.4905232E+04    9.0974913E+06   -3.5974737E+04    1.0760343E+07
    4.23   300.000   -3.450E+02    1.0339534E+07    4.2348902E+04    3.0123237E+04    8.8354021E+06   -4.2348918E+04    1.0339534E+07
    4.24   300.000   -3.454E+02    9.9106402E+06    4.4663061E+04    7.7418414E+03    8.5469724E+06   -4.4663076E+04    9.9106401E+06
    4.25   300.000   -3.458E+02    9.4916353E+06    4.3989250E+04   -1.1093056E+04    8.2260156E+06   -4.3989268E+04    9.4916352E+06
    4.26   300.000   -3.462E+02    9.0891878E+06    4.1250839E+04   -2.5384670E+04    7.8792414E+06   -4.1250862E+04    9.0891877E+06
    4.27   300.000   -3.465E+02    8.7030303E+06    3.7016943E+04   -3.4561522E+04    7.5256820E+06   -3.7016971E+04    8.7030302E+06
    4.28   300.000   -3.469E+02    8.3337055E+06    3.1593585E+04   -3.8806126E+04    7.1925853E+06   -3.1593619E+04    8.3337054E+06
    4.29   300.000   -3.473E+02    7.9887245E+06    2.5234613E+04   -3.9171747E+04    6.9083990E+06   -2.5234651E+04    7.9887244E+06
    4.30   300.000   -3.476E+02    7.6827811E+06    1.8309358E+04   -3.7190895E+04    6.6951108E+06   -1.8309397E+04    7.6827811E+06
    4.31   300.000   -3.479E+02    7.4323664E+06    1.1434864E+04   -3.4157830E+04    6.5631105E+06   -1.1434899E+04    7.4323663E+06
    4.32   300.000   -3.483E+02    7.2498239E+06    5.5272668E+03   -3.0733227E+04    6.5110977E+06   -5.5272960E+03    7.2498238E+06
    4.33   300.000   -3.486E+02    7.1413421E+06    1.5891514E+03   -2.7064089E+04    6.5308842E+06   -1.5891734E+03    7.1413420E+06
    4.34   300.000   -3.489E+02    7.1085164E+06    2.0974222E+02   -2.2880679E+04    6.6137333E+06   -2.0975759E+02    7.1085164E+06
    4.35   300.000   -3.493E+02    7.1500322E+06    1.0965576E+03   -1.7315726E+04    6.7538542E+06   -1.0965683E+03    7.1500321E+06
    4.36   300.000   -3.496E+02    7.2613704E+06    3.0758102E+03   -8.9897776E+03    6.9469144E+06   -3.0758187E+03    7.2613703E+06
    4.37   300.000   -3.500E+02    7.4333252E+06    4.6822926E+03    3.1250129E+03    7.1853871E+06   -4.6823015E+03    7.4333252E+06
    4.38   300.000   -3.503E+02    7.6512584E+06    4.8948572E+03    1.8368006E+04    7.4550502E+06   -4.8948686E+03    7.6512584E+06
    4.39   300.000   -3.507E+02    7.8959786E+06    3.4221326E+03    3.3504701E+04    7.7356654E+06   -3.4221484E+03    7.8959786E+06
    4.40   300.000   -3.510E+02    8.1456349E+06    5.2194399E+02    4.3101912E+04    8.0051884E+06   -5.2196559E+02    8.1456349E+06
    4.41   300.000   -3.514E+02    8.3778093E+06   -3.1794913E+03    4.1268458E+04    8.2445975E+06    3.1794633E+03    8.3778093E+06
    4.42   300.000   -3.518E+02    8.5716378E+06   -6.6747069E+03    2.4063506E+04    8.4408824E+06    6.6746725E+03    8.5716378E+06
    4.43   300.000   -3.522E+02    8.7097674E+06   -8.6238405E+03   -8.4544177E+03    8.5873064E+06    8.6238005E+03    8.7097674E+06
    4.44   300.000   -3.526E+02    8.7798810E+06   -7.7777277E+03   -5.1242271E+04    8.6815539E+06    7.7776830E+03    8.7798810E+06
    4.45   300.000   -3.530E+02    8.7763007E+06   -3.7863337E+03   -9.4723998E+04    8.7234858E+06    3.7862852E+03    8.7763006E+06
    4.46   300.000   -3.534E+02    8.7019995E+06    2.1146817E+03   -1.2709319E+05    8.7140637E+06   -2.1147341E+03    8.7019995E+06
    4.47   300.000   -3.538E+02    8.5694922E+06    7.3160584E+03   -1.3845607E+05    8.6554813E+06   -7.3161146E+03    8.5694922E+06
    4.48   300.000   -3.541E+02    8.3986262E+06    9.1582336E+03   -1.2545489E+05    8.5516018E+06   -9.1582935E+03    8.3986261E+06
    4.49   300.000   -3.545E+02    8.2118349E+06    6.5272687E+03   -9.3875128E+04    8.4086047E+06   -6.5273314E+03    8.2118348E+06
    4.50   300.000   -3.549E+02    8.0300323E+06    5.2534437E+02   -5.7133087E+04    8.2367675E+06   -5.2540865E+02    8.0300322E+06
    4.51   300.000   -3.553E+02    7.8716003E+06   -6.2413888E+03   -3.0624751E+04    8.0531495E+06    6.2413248E+03    7.8716002E+06
    4.52   300.000   -3.557E+02    7.7531335E+06   -1.1196179E+04   -2.4626349E+04    7.8821199E+06    1.1196117E+04    7.7531334E+06
    4.53   300.000   -3.561E+02    7.6880612E+06   -1.3086954E+04   -3.9750556E+04    7.7504346E+06    1.3086894E+04    7.6880611E+06
    4.54   300.000   -3.565E+02    7.6815791E+06   -1.2238917E+04   -6.7531909E+04    7.6779007E+06    1.2238858E+04    7.6815791E+06
    4.55   300.000   -3.569E+02    7.7255181E+06   -9.7933167E+03   -9.5589478E+04    7.6694785E+06    9.7932592E+03    7.7255181E+06
    4.56   300.000   -3.573E+02    7.7990457E+06   -6.7296229E+03   -1.1415283E+05    7.7146704E+06    6.7295648E+03    7.7990457E+06
    4.57   300.000   -3.577E+02    7.8770768E+06   -3.4966098E+03   -1.1998780E+05    7.7946921E+06    3.4965497E+03    7.8770769E+06
    4.58   300.000   -3.581E+02    7.9415503E+06   -3.6500522E+02   -1.1574158E+05    7.8918932E+06    3.6494211E+02    7.9415504E+06
    4.59   300.000   -3.585E+02    7.9886968E+06    2.1114603E+03   -1.0635450E+05    7.9951178E+06   -2.1115266E+03    7.9886969E+06
    4.60   300.000   -3.590E+02    8.0298022E+06    3.1525875E+03   -9.5861396E+04    8.0998699E+06   -3.1526561E+03    8.0298023E+06
    4.61   300.000   -3.594E+02    8.0872115E+06    2.3083147E+03   -8.6146457E+04    8.2065404E+06   -2.3083837E+03    8.0872115E+06
    4.62   300.000   -3.598E+02    8.1871765E+06   -7.9635067E+01   -7.7042397E+04    8.3184829E+06    7.9567428E+01    8.1871766E+06
    4.63   300.000   -3.603E+02    8.3506995E+06   -3.0151550E+03   -6.7097659E+04    8.4389657E+06    3.0150904E+03    8.3506996E+06
    4.64   300.000   -3.607E+02    8.5854276E+06   -5.4696911E+03   -5.5035123E+04    8.5676588E+06    5.4696309E+03    8.5854277E+06
    4.65   300.000   -3.612E+02    8.8819939E+06   -6.9393335E+03   -4.1369175E+04    8.6997483E+06    6.9392791E+03    8.8819939E+06
    4.66   300.000   -3.617E+02    9.2150720E+06   -7.5749828E+03   -2.8708963E+04    8.8284165E+06    7.5749357E+03    9.2150721E+06
    4.67   300.000   -3.621E+02    9.5469784E+06   -7.9880829E+03   -2.0131312E+04    8.9470485E+06    7.9880441E+03    9.5469784E+06
    4.68   300.000   -3.626E+02    9.8330959E+06   -8.9236166E+03   -1.7155661E+04    9.0481102E+06    8.9235869E+03    9.8330959E+06
    4.69   300.000   -3.631E+02    1.0030655E+07   -1.0789401E+04   -1.9469893E+04    9.1208982E+06    1.0789381E+04    1.0030655E+07
    4.70   300.000   -3.636E+02    1.0110494E+07   -1.3230422E+04   -2.6462771E+04    9.1524843E+06    1.3230413E+04    1.0110494E+07
    4.71   300.000   -3.641E+02    1.0066678E+07   -1.5331103E+04   -3.8235914E+04    9.1320615E+06    1.5331105E+04    1.0066678E+07
    4.72   300.000   -3.646E+02    9.9175966E+06   -1.6558235E+04   -5.4423174E+04    9.0546492E+06    1.6558252E+04    9.9175965E+06
    4.73   300.000   -3.650E+02    9.6965819E+06   -1.7454634E+04   -7.2312600E+04    8.9209951E+06    1.7454667E+04    9.6965818E+06
    4.74   300.000   -3.655E+02    9.4364206E+06   -1.9070119E+04   -8.7196355E+04    8.7344999E+06    1.9070167E+04    9.4364205E+06
    4.75   300.000   -3.660E+02    9.1563679E+06   -2.1633161E+04   -9.5360489E+04    8.4987219E+06    2.1633221E+04    9.1563678E+06
    4.76   300.000   -3.664E+02    8.8589351E+06   -2.4049579E+04   -9.6881523E+04    8.2181904E+06    2.4049646E+04    8.8589350E+06
    4.77   300.000   -3.668E+02    8.5368479E+06   -2.4838070E+04   -9.5512012E+04    7.9013195E+06    2.4838139E+04    8.5368478E+06
    4.78   300.000   -3.673E+02    8.1841426E+06   -2.3410790E+04   -9.5710397E+04    7.5616054E+06    2.3410855E+04    8.1841425E+06
    4.79   300.000   -3.677E+02    7.8048537E+06   -2.0425079E+04   -9.9216571E+04    7.2158265E+06    2.0425139E+04    7.8048536E+06
    4.80   300.000   -3.681E+02    7.4159404E+06   -1.7116372E+04   -1.0404697E+05    6.8815271E+06    1.7116428E+04    7.4159403E+06
    4.81   300.000   -3.685E+02    7.0440059E+06   -1.4353848E+04   -1.0673856E+05    6.5753452E+06    1.4353901E+04    7.0440058E+06
    4.82   300.000   -3.689E+02    6.7179434E+06   -1.2077490E+04   -1.0536774E+05    6.3117403E+06    1.2077543E+04    6.7179433E+06
    4.83   300.000   -3.693E+02    6.4613257E+06   -9.4126886E+03   -1.0025500E+05    6.1020620E+06    9.4127424E+03    6.4613256E+06
    4.84   300.000   -3.696E+02    6.2871962E+06   -5.4036463E+03   -9.2175291E+04    5.9540808E+06    5.4037022E+03    6.2871962E+06
    4.85   300.000   -3.700E+02    6.1956455E+06    1.4981483E+02   -8.0342270E+04    5.8709802E+06   -1.4975658E+02    6.1956455E+06
    4.86   300.000   -3.704E+02    6.1740762E+06    6.4209749E+03   -6.2127695E+04    5.8495135E+06   -6.4209150E+03    6.1740762E+06
    4.87   300.000   -3.707E+02    6.2003326E+06    1.1980905E+04   -3.4889013E+04    5.8791660E+06   -1.1980844E+04    6.2003326E+06
    4.88   300.000   -3.711E+02    6.2477283E+06    1.5466579E+04    1.1981510E+03    5.9437937E+06   -1.5466521E+04    6.2477283E+06
    4.89   300.000   -3.715E+02    6.2896948E+06    1.6085071E+04    4.1322082E+04    6.0245252E+06   -1.6085018E+04    6.2896949E+06
    4.90   300.000   -3.719E+02    6.3028710E+06    1.3820824E+04    7.6926623E+04    6.1018335E+06   -1.3820778E+04    6.3028711E+06
    4.91   300.000   -3.723E+02    6.2697034E+06    9.3156431E+03    9.9384033E+04    6.1566530E+06   -9.3156033E+03    6.2697034E+06
    4.92   300.000   -3.727E+02    6.1813191E+06    3.5239008E+03    1.0448278E+05    6.1720003E+06   -3.5238659E+03    6.1813192E+06
    4.93   300.000   -3.730E+02    6.0392904E+06   -2.6524346E+03    9.4722491E+04    6.1357355E+06    2.6524676E+03    6.0392904E+06
    4.94   300.000   -3.734E+02    5.8545994E+06   -8.6290791E+03    7.7812096E+04    6.0432575E+06    8.6291134E+03    5.8545994E+06
    4.95   300.000   -3.738E+02    5.6439576E+06   -1.4210066E+04    6.2690945E+04    5.8984932E+06    1.4210104E+04    5.6439576E+06
    4.96   300.000   -3.741E+02    5.4255843E+06   -1.9365421E+04    5.5692214E+04    5.7132836E+06    1.9365461E+04    5.4255842E+06
    4.97   300.000   -3.745E+02    5.2168117E+06   -2.3874518E+04    5.8317068E+04    5.5064293E+06    2.3874558E+04    5.2168116E+06
    4.98   300.000   -3.748E+02    5.0337548E+06   -2.7204059E+04    6.6931582E+04    5.3017863E+06    2.7204094E+04    5.0337547E+06
    4.99   300.000   -3.751E+02    4.8908114E+06   -2.8747292E+04    7.4693812E+04    5.1231761E+06    2.8747317E+04    4.8908114E+06
    5.00   300.000   -3.755E+02    4.7979047E+06   -2.8180724E+04    7.5357184E+04    4.9865188E+06    2.8180736E+04    4.7979047E+06
# T(K) = 400.00   Npoints =    1001   V(cm^3) =  1.231E-20
   -5.00   400.000    3.455E+02    1.8889079E+06    1.9579930E+02   -3.2396615E+04    1.7765586E+06   -1.9580505E+02    1.8889079E+06
   -4.99   400.000    3.447E+02    1.8771021E+06   -1.6663864E+02   -2.4617343E+04    1.7700451E+06    1.6663250E+02    1.8771021E+06
   -4.98   400.000    3.440E+02    1.8565770E+06   -4.9998189E+02   -1.7480543E+04    1.7583286E+06    4.9997538E+02    1.8565770E+06
   -4.97   400.000    3.432E+02    1.8291251E+06   -7.2958756E+02   -1.1439009E+04    1.7418774E+06    7.2958067E+02    1.8291252E+06
   -4.96   400.000    3.425E+02    1.7969965E+06   -7.9691333E+02   -6.6474757E+03    1.7213832E+06    7.9690605E+02    1.7969965E+06
   -4.95   400.000    3.417E+02    1.7625266E+06   -6.7503116E+02   -2.9928924E+03    1.6976795E+06    6.7502346E+02    1.7625266E+06
   -4.94   400.000    3.410E+02    1.7277944E+06   -3.7480130E+02   -2.0042986E+02    1.6717202E+06    3.7479309E+02    1.7277944E+06
   -4.93   400.000    3.402E+02    1.6943577E+06    6.1560145E+01    2.0430768E+03    1.6445387E+06   -6.1569033E+01    1.6943577E+06
   -4.92   400.000    3.395E+02    1.6631017E+06    5.7618652E+02    3.9978135E+03    1.6171176E+06   -5.7619633E+02    1.6631017E+06
   -4.91   400.000    3.387E+02    1.6342137E+06    1.1126322E+03    5.8291857E+03    1.5901742E+06   -1.1126432E+03    1.6342137E+06
   -4.90   400.000    3.379E+02    1.6072778E+06    1.6264681E+03    7.6044252E+03    1.5639596E+06   -1.6264808E+03    1.6072778E+06
   -4.89   400.000    3.372E+02    1.5814624E+06    2.0862708E+03    9.3086966E+03    1.5381893E+06   -2.0862853E+03    1.5814624E+06
   -4.88   400.000    3.364E+02    1.5557491E+06    2.4682635E+03    1.0870128E+04    1.5121557E+06   -2.4682801E+03    1.5557492E+06
   -4.87   400.000    3.356E+02    1.5291510E+06    2.7512211E+03    1.2191215E+04    1.4849764E+06   -2.7512398E+03    1.5291511E+06
   -4.86   400.000    3.349E+02    1.5008766E+06    2.9162012E+03    1.3183016E+04    1.4558691E+06   -2.9162217E+03    1.5008766E+06
   -4.85   400.000    3.341E+02    1.4704250E+06    2.9508384E+03    1.3793369E+04    1.4243512E+06   -2.9508604E+03    1.4704251E+06
   -4.84   400.000    3.334E+02    1.4376101E+06    2.8547883E+03    1.4018817E+04    1.3903117E+06   -2.8548113E+03    1.4376101E+06
   -4.83   400.000    3.326E+02    1.4025165E+06    2.6429330E+03    1.3894261E+04    1.3539522E+06   -2.6429562E+03    1.4025165E+06
   -4.82   400.000    3.319E+02    1.3654005E+06    2.3447181E+03    1.3464588E+04    1.3156390E+06   -2.3447409E+03    1.3654005E+06
   -4.81   400.000    3.312E+02    1.3265681E+06    1.9999477E+03    1.2755706E+04    1.2757337E+06   -1.9999697E+03    1.3265681E+06
   -4.80   400.000    3.306E+02    1.2862718E+06    1.6526133E+03    1.1768171E+04    1.2344750E+06   -1.6526342E+03    1.2862718E+06
   -4.79   400.000    3.299E+02    1.2446529E+06    1.3441708E+03    1.0502848E+04    1.1919544E+06   -1.3441905E+03    1.2446529E+06
   -4.78   400.000    3.293E+02    1.2017229E+06    1.1066352E+03    9.0008748E+03    1.1481748E+06   -1.1066540E+03    1.2017229E+06
   -4.77   400.000    3.287E+02    1.1573625E+06    9.5584301E+02    7.3647831E+03    1.1031331E+06   -9.5586110E+02    1.1573625E+06
   -4.76   400.000    3.282E+02    1.1113335E+06    8.8694193E+02    5.7406874E+03    1.0568653E+06   -8.8695960E+02    1.1113335E+06
   -4.75   400.000    3.276E+02    1.0633251E+06    8.7553840E+02    4.2709518E+03    1.0094295E+06   -8.7555589E+02    1.0633251E+06
   -4.74   400.000    3.271E+02    1.0130572E+06    8.8624151E+02    3.0463754E+03    9.6085905E+05   -8.8625897E+02    1.0130572E+06
   -4.73   400.000    3.266E+02    9.6042642E+05    8.8575483E+02    2.0834615E+03    9.1114338E+05   -8.8577229E+02    9.6042642E+05
   -4.72   400.000    3.261E+02    9.0563570E+05    8.5395786E+02    1.3331976E+03    8.6027827E+05   -8.5397524E+02    9.0563571E+05
   -4.71   400.000    3.257E+02    8.4924608E+05    7.8740899E+02    7.0991648E+02    8.0837403E+05   -7.8742610E+02    8.4924608E+05
   -4.70   400.000    3.252E+02    7.9212261E+05    6.9480258E+02    1.2340528E+02    7.5576555E+05   -6.9481916E+02    7.9212262E+05
   -4.69   400.000    3.248E+02    7.3529339E+05    5.8863442E+02   -4.9710475E+02    7.0305262E+05   -5.8865021E+02    7.3529340E+05
   -4.68   400.000    3.244E+02    6.7976551E+05    4.7828006E+02   -1.1908051E+03    6.5102573E+05   -4.7829482E+02    6.7976552E+05
   -4.67   400.000    3.241E+02    6.2635126E+05    3.6737540E+02   -1.9643063E+03    6.0049487E+05   -3.6738898E+02    6.2635127E+05
   -4.66   400.000    3.237E+02    5.7555889E+05    2.5538941E+02   -2.7990017E+03    5.5209926E+05   -2.5540174E+02    5.7555890E+05
   -4.65   400.000    3.234E+02    5.2758591E+05    1.4148733E+02   -3.6626502E+03    5.0619371E+05   -1.4149841E+02    5.2758592E+05
   -4.64   400.000    3.230E+02    4.8241260E+05    2.8425375E+01   -4.5205799E+03    4.6286282E+05   -2.8435268E+01    4.8241262E+05
   -4.63   400.000    3.227E+02    4.3994461E+05   -7.5412750E+01   -5.3432787E+03    4.2203828E+05    7.5403949E+01    4.3994463E+05
   -4.62   400.000    3.224E+02    4.0013344E+05   -1.5696368E+02   -6.1097458E+03    3.8364041E+05    1.5695587E+02    4.0013346E+05
   -4.61   400.000    3.220E+02    3.6302653E+05   -2.0220919E+02   -6.8078419E+03    3.4766937E+05    2.0220230E+02    3.6302655E+05
   -4.60   400.000    3.217E+02    3.2874625E+05   -2.0097330E+02   -7.4327245E+03    3.1422131E+05    2.0096725E+02    3.2874627E+05
   -4.59   400.000    3.214E+02    2.9743218E+05   -1.5051202E+02   -7.9834657E+03    2.8345527E+05    1.5050677E+02    2.9743220E+05
   -4.58   400.000    3.210E+02    2.6918629E+05   -5.6430858E+01   -8.4581723E+03    2.5555077E+05    5.6426343E+01    2.6918630E+05
   -4.57   400.000    3.206E+02    2.4404413E+05    6.9048269E+01   -8.8493517E+03    2.3068053E+05   -6.9052096E+01    2.4404415E+05
   -4.56   400.000    3.202E+02    2.2197586E+05    2.1030890E+02   -9.1418822E+03    2.0900035E+05   -2.1031210E+02    2.2197588E+05
   -4.55   400.000    3.198E+02    2.0290610E+05    3.5160119E+02   -9.3146207E+03    1.9064802E+05   -3.5160383E+02    2.0290611E+05
   -4.54   400.000    3.194E+02    1.8673515E+05    4.7938797E+02   -9.3447386E+03    1.7574066E+05   -4.7939012E+02    1.8673516E+05
   -4.53   400.000    3.189E+02    1.7334698E+05    5.8364400E+02   -9.2132088E+03    1.6436155E+05   -5.8364574E+02    1.7334700E+05
   -4.52   400.000    3.183E+02    1.6260264E+05    6.5852466E+02   -8.9104294E+03    1.5653379E+05   -6.5852606E+02    1.6260265E+05
   -4.51   400.000    3.178E+02    1.5433127E+05    7.0278012E+02   -8.4411307E+03    1.5218701E+05   -7.0278124E+02    1.5433129E+05
   -4.50   400.000    3.171E+02    1.4833352E+05    7.1988268E+02   -7.8269111E+03    1.5112991E+05   -7.1988357E+02    1.4833353E+05
   -4.49   400.000    3.165E+02    1.4440083E+05    7.1753046E+02   -7.1043099E+03    1.5303942E+05   -7.1753114E+02    1.4440084E+05
   -4.48   400.000    3.157E+02    1.4234159E+05    7.0625064E+02   -6.3175608E+03    1.5746980E+05   -7.0625113E+02    1.4234159E+05
   -4.47   400.000    3.150E+02    1.4199952E+05    6.9716663E+02   -5.5077631E+03    1.6387924E+05   -6.9716695E+02    1.4199953E+05
   -4.46   400.000    3.142E+02    1.4325486E+05    6.9937929E+02   -4.7027375E+03    1.7167021E+05   -6.9937944E+02    1.4325487E+05
   -4.45   400.000    3.134E+02    1.4600873E+05    7.1765392E+02   -3.9127118E+03    1.8024155E+05   -7.1765393E+02    1.4600874E+05
   -4.44   400.000    3.125E+02    1.5015896E+05    7.5110479E+02   -3.1349976E+03    1.8904690E+05   -7.5110470E+02    1.5015897E+05
   -4.43   400.000    3.116E+02    1.5557707E+05    7.9330749E+02   -2.3662988E+03    1.9764794E+05   -7.9330733E+02    1.5557707E+05
   -4.42   400.000    3.107E+02    1.6209261E+05    8.3382453E+02   -1.6167867E+03    2.0574642E+05   -8.3382436E+02    1.6209261E+05
   -4.41   400.000    3.097E+02    1.6948587E+05    8.6069618E+02   -9.1858989E+02    2.1318330E+05   -8.6069607E+02    1.6948587E+05
   -4.40   400.000    3.086E+02    1.7748667E+05    8.6323020E+02   -3.2387310E+02    2.1990429E+05   -8.6323022E+02    1.7748667E+05
   -4.39   400.000    3.074E+02    1.8577772E+05    8.3445614E+02    1.0742258E+02    2.2590378E+05   -8.3445635E+02    1.8577771E+05
   -4.38   400.000    3.061E+02    1.9400227E+05    7.7273263E+02    3.2548241E+02    2.3116476E+05   -7.7273307E+02    1.9400227E+05
   -4.37   400.000    3.047E+02    2.0177689E+05    6.8210344E+02    3.0708662E+02    2.3561193E+05   -6.8210413E+02    2.0177689E+05
   -4.36   400.000    3.032E+02    2.0870878E+05    5.7118064E+02    6.4192423E+01    2.3909034E+05   -5.7118155E+02    2.0870878E+05
   -4.35   400.000    3.014E+02    2.1441613E+05    4.5070280E+02   -3.5837932E+02    2.4137542E+05   -4.5070388E+02    2.1441612E+05
   -4.34   400.000    2.994E+02    2.1854982E+05    3.3045931E+02   -8.9433175E+02    2.4221020E+05   -3.3046052E+02    2.1854981E+05
   -4.33   400.000    2.972E+02    2.2081613E+05    2.1677746E+02   -1.4710770E+03    2.4135610E+05   -2.1677875E+02    2.2081612E+05
   -4.32   400.000    2.947E+02    2.2100009E+05    1.1178465E+02   -2.0234582E+03    2.3863975E+05   -1.1178597E+02    2.2100008E+05
   -4.31   400.000    2.920E+02    2.1898844E+05    1.4845793E+01   -2.5033253E+03    2.3398434E+05   -1.4847115E+01    2.1898843E+05
   -4.30   400.000    2.890E+02    2.1478852E+05   -7.4727685E+01   -2.8845394E+03    2.2742376E+05    7.4726400E+01    2.1478851E+05
   -4.29   400.000    2.858E+02    2.0853868E+05   -1.5546417E+02   -3.1635229E+03    2.1910484E+05    1.5546297E+02    2.0853867E+05
   -4.28   400.000    2.824E+02    2.0050574E+05   -2.2347432E+02   -3.3554186E+03    2.0928243E+05    2.2347325E+02    2.0050573E+05
   -4.27   400.000    2.788E+02    1.9106791E+05   -2.7427394E+02   -3.4866508E+03    1.9830750E+05    2.7427305E+02    1.9106790E+05
   -4.26   400.000    2.750E+02    1.8068455E+05   -3.0540727E+02   -3.5859829E+03    1.8660581E+05    3.0540662E+02    1.8068454E+05
   -4.25   400.000    2.712E+02    1.6985739E+05   -3.1815719E+02   -3.6768357E+03    1.7464691E+05    3.1815682E+02    1.6985738E+05
   -4.24   400.000    2.673E+02    1.5908991E+05   -3.1740096E+02   -3.7729799E+03    1.6290754E+05    3.1740093E+02    1.5908990E+05
   -4.23   400.000    2.633E+02    1.4885101E+05   -3.0992889E+02   -3.8782095E+03    1.5183610E+05    3.0992921E+02    1.4885100E+05
   -4.22   400.000    2.594E+02    1.3954789E+05   -3.0234751E+02   -3.9891650E+03    1.4182424E+05    3.0234820E+02    1.3954788E+05
   -4.21   400.000    2.554E+02    1.3151000E+05   -2.9965121E+02   -4.0997020E+03    1.3318876E+05    2.9965224E+02    1.3150999E+05
   -4.20   400.000    2.515E+02    1.2498323E+05   -3.0491687E+02   -4.2050898E+03    1.2616348E+05    3.0491820E+02    1.2498322E+05
   -4.19   400.000    2.475E+02    1.2013068E+05   -3.1987888E+02   -4.3046716E+03    1.2089858E+05    3.1988043E+02    1.2013068E+05
   -4.18   400.000    2.436E+02    1.1703503E+05   -3.4580413E+02   -4.4022824E+03    1.1746376E+05    3.4580582E+02    1.1703502E+05
   -4.17   400.000    2.395E+02    1.1569990E+05   -3.8423193E+02   -4.5045240E+03    1.1585229E+05    3.8423368E+02    1.1569990E+05
   -4.16   400.000    2.354E+02    1.1605212E+05   -4.3754301E+02   -4.6177328E+03    1.1598544E+05    4.3754476E+02    1.1605212E+05
   -4.15   400.000    2.312E+02    1.1794980E+05   -5.0957858E+02   -4.7449587E+03    1.1771972E+05    5.0958027E+02    1.1794980E+05
   -4.14   400.000    2.269E+02    1.2120114E+05   -6.0638428E+02   -4.8843232E+03    1.2086007E+05    6.0638588E+02    1.2120114E+05
   -4.13   400.000    2.226E+02    1.2559376E+05   -7.3669795E+02   -5.0295832E+03    1.2518040E+05    7.3669946E+02    1.2559376E+05
   -4.12   400.000    2.181E+02    1.3092863E+05   -9.1143508E+02   -5.1727579E+03    1.3044874E+05    9.1143652E+02    1.3092863E+05
   -4.11   400.000    2.136E+02    1.3705027E+05   -1.1415936E+03   -5.3077754E+03    1.3645237E+05    1.1415950E+03    1.3705027E+05
   -4.10   400.000    2.090E+02    1.4386647E+05   -1.4348261E+03   -5.4337106E+03    1.4301810E+05    1.4348275E+03    1.4386647E+05
   -4.09   400.000    2.044E+02    1.5135603E+05   -1.7919752E+03   -5.5563664E+03    1.5002513E+05    1.7919766E+03    1.5135603E+05
   -4.08   400.000    1.998E+02    1.5956693E+05   -2.2052784E+03   -5.6875998E+03    1.5741009E+05    2.2052800E+03    1.5956693E+05
   -4.07   400.000    1.952E+02    1.6860740E+05   -2.6591303E+03   -5.8428594E+03    1.6516451E+05    2.6591320E+03    1.6860741E+05
   -4.06   400.000    1.908E+02    1.7863004E+05   -3.1326616E+03   -6.0384553E+03    1.7332414E+05    3.1326633E+03    1.7863004E+05
   -4.05   400.000    1.864E+02    1.8980667E+05   -3.6022547E+03   -6.2901889E+03    1.8195004E+05    3.6022566E+03    1.8980667E+05
   -4.04   400.000    1.823E+02    2.0229300E+05   -4.0425044E+03   -6.6136807E+03    1.9110404E+05    4.0425063E+03    2.0229300E+05
   -4.03   400.000    1.782E+02    2.1618730E+05   -4.4257981E+03   -7.0250090E+03    2.0082608E+05    4.4258000E+03    2.1618730E+05
   -4.02   400.000    1.744E+02    2.3149312E+05   -4.7222527E+03   -7.5396583E+03    2.1112251E+05    4.7222544E+03    2.3149312E+05
   -4.01   400.000    1.708E+02    2.4809578E+05   -4.9018537E+03   -8.1685387E+03    2.2196950E+05    4.9018552E+03    2.4809578E+05
   -4.00   400.000    1.673E+02    2.6575566E+05   -4.9391378E+03   -8.9109716E+03    2.3332439E+05    4.9391390E+03    2.6575566E+05
   -3.99   400.000    1.641E+02    2.8411160E+05   -4.8187704E+03   -9.7454805E+03    2.4512795E+05    4.8187713E+03    2.8411160E+05
   -3.98   400.000    1.611E+02    3.0268523E+05   -4.5395019E+03   -1.0620687E+04    2.5728172E+05    4.5395026E+03    3.0268523E+05
   -3.97   400.000    1.583E+02    3.2088445E+05   -4.1148943E+03   -1.1450936E+04    2.6960052E+05    4.1148949E+03    3.2088444E+05
   -3.96   400.000    1.557E+02    3.3801804E+05   -3.5709904E+03   -1.2122839E+04    2.8176229E+05    3.5709907E+03    3.3801804E+05
   -3.95   400.000    1.534E+02    3.5334030E+05   -2.9422762E+03   -1.2516778E+04    2.9329182E+05    2.9422765E+03    3.5334030E+05
   -3.94   400.000    1.512E+02    3.6613718E+05   -2.2673684E+03   -1.2540145E+04    3.0360707E+05    2.2673686E+03    3.6613718E+05
   -3.93   400.000    1.492E+02    3.7584423E+05   -1.5854304E+03   -1.2159486E+04    3.1212937E+05    1.5854305E+03    3.7584423E+05
   -3.92   400.000    1.473E+02    3.8216338E+05   -9.3386902E+02   -1.1413939E+04    3.1842310E+05    9.3386886E+02    3.8216337E+05
   -3.91   400.000    1.456E+02    3.8513476E+05   -3.4724747E+02   -1.0399022E+04    3.2230944E+05    3.4724708E+02    3.8513476E+05
   -3.90   400.000    1.440E+02    3.8513170E+05    1.4337197E+02   -9.2266573E+03    3.2390746E+05   -1.4337263E+02    3.8513170E+05
   -3.89   400.000    1.425E+02    3.8277504E+05    5.1166855E+02   -7.9835729E+03    3.2359033E+05   -5.1166950E+02    3.8277503E+05
   -3.88   400.000    1.411E+02    3.7879410E+05    7.3824011E+02   -6.7129192E+03    3.2188141E+05   -7.3824132E+02    3.7879410E+05
   -3.87   400.000    1.398E+02    3.7387902E+05    8.1300236E+02   -5.4290612E+03    3.1933348E+05   -8.1300378E+02    3.7387902E+05
   -3.86   400.000    1.385E+02    3.6856837E+05    7.3657371E+02   -4.1530023E+03    3.1642827E+05   -7.3657525E+02    3.6856837E+05
   -3.85   400.000    1.372E+02    3.6320056E+05    5.1996962E+02   -2.9425849E+03    3.1351737E+05   -5.1997117E+02    3.6320055E+05
   -3.84   400.000    1.360E+02    3.5793508E+05    1.8298257E+02   -1.8972030E+03    3.1081055E+05   -1.8298404E+02    3.5793508E+05
   -3.83   400.000    1.349E+02    3.5282773E+05   -2.4799492E+02   -1.1356374E+03    3.0840715E+05    2.4799364E+02    3.5282773E+05
   -3.82   400.000    1.337E+02    3.4792638E+05   -7.4234691E+02   -7.6223851E+02    3.0635660E+05    7.4234587E+02    3.4792638E+05
   -3.81   400.000    1.326E+02    3.4334741E+05   -1.2675565E+03   -8.3952400E+02    3.0472426E+05    1.2675557E+03    3.4334740E+05
   -3.80   400.000    1.314E+02    3.3930145E+05   -1.7907470E+03   -1.3758635E+03    3.0363457E+05    1.7907465E+03    3.3930145E+05
   -3.79   400.000    1.303E+02    3.3606179E+05   -2.2789182E+03   -2.3261297E+03    3.0327354E+05    2.2789179E+03    3.3606178E+05
   -3.78   400.000    1.293E+02    3.3389658E+05   -2.6988563E+03   -3.5999770E+03    3.0385423E+05    2.6988561E+03    3.3389658E+05
   -3.77   400.000    1.282E+02    3.3300025E+05   -3.0188967E+03   -5.0767394E+03    3.0556728E+05    3.0188967E+03    3.3300025E+05
   -3.76   400.000    1.271E+02    3.3345024E+05   -3.2137246E+03   -6.6302198E+03    3.0853913E+05    3.2137247E+03    3.3345023E+05
   -3.75   400.000    1.260E+02    3.3519403E+05   -3.2706842E+03   -8.1633199E+03    3.1280325E+05    3.2706843E+03    3.3519402E+05
   -3.74   400.000    1.250E+02    3.3805549E+05   -3.1940824E+03   -9.6421886E+03    3.1827430E+05    3.1940825E+03    3.3805549E+05
   -3.73   400.000    1.239E+02    3.4175012E+05   -3.0043977E+03   -1.1112241E+04    3.2471840E+05    3.0043977E+03    3.4175011E+05
   -3.72   400.000    1.229E+02    3.4591012E+05   -2.7317266E+03   -1.2683541E+04    3.3173367E+05    2.7317265E+03    3.4591012E+05
   -3.71   400.000    1.219E+02    3.5012868E+05   -2.4056129E+03   -1.4488777E+04    3.3877233E+05    2.4056129E+03    3.5012868E+05
   -3.70   400.000    1.208E+02    3.5402808E+05   -2.0452233E+03   -1.6631288E+04    3.4522712E+05    2.0452232E+03    3.5402808E+05
   -3.69   400.000    1.198E+02    3.5733958E+05   -1.6539368E+03   -1.9143203E+04    3.5057076E+05    1.6539367E+03    3.5733958E+05
   -3.68   400.000    1.188E+02    3.5996662E+05   -1.2205695E+03   -2.1965648E+04    3.5449996E+05    1.2205693E+03    3.5996662E+05
   -3.67   400.000    1.178E+02    3.6200256E+05   -7.2625795E+02   -2.4952571E+04    3.5702569E+05    7.2625772E+02    3.6200256E+05
   -3.66   400.000    1.167E+02    3.6369368E+05   -1.5327732E+02   -2.7893731E+04    3.5847450E+05    1.5327692E+02    3.6369368E+05
   -3.65   400.000    1.157E+02    3.6536483E+05    5.0834760E+02   -3.0550853E+04    3.5940542E+05   -5.0834824E+02    3.6536483E+05
   -3.64   400.000    1.146E+02    3.6733966E+05    1.2585596E+03   -3.2700077E+04    3.6047618E+05   -1.2585605E+03    3.6733966E+05
   -3.63   400.000    1.136E+02    3.6988085E+05    2.0887927E+03   -3.4172119E+04    3.6229754E+05   -2.0887939E+03    3.6988085E+05
   -3.62   400.000    1.125E+02    3.7315736E+05    2.9852066E+03   -3.4881283E+04    3.6530351E+05   -2.9852082E+03    3.7315736E+05
   -3.61   400.000    1.115E+02    3.7722953E+05    3.9312479E+03   -3.4837879E+04    3.6965422E+05   -3.9312498E+03    3.7722953E+05
   -3.60   400.000    1.104E+02    3.8203995E+05    4.9076359E+03   -3.4143844E+04    3.7518683E+05   -4.9076380E+03    3.8203996E+05
   -3.59   400.000    1.093E+02    3.8740696E+05    5.8890428E+03   -3.2974709E+04    3.8143265E+05   -5.8890451E+03    3.8740697E+05
   -3.58   400.000    1.082E+02    3.9302839E+05    6.8388050E+03   -3.1551349E+04    3.8771172E+05   -6.8388074E+03    3.9302839E+05
   -3.57   400.000    1.071E+02    3.9850699E+05    7.7052268E+03   -3.0104654E+04    3.9329304E+05   -7.7052292E+03    3.9850699E+05
   -3.56   400.000    1.059E+02    4.0340415E+05    8.4236398E+03   -2.8837399E+04    3.9757878E+05   -8.4236422E+03    4.0340415E+05
   -3.55   400.000    1.048E+02    4.0731982E+05    8.9262346E+03   -2.7890038E+04    4.0025360E+05   -8.9262368E+03    4.0731983E+05
   -3.54   400.000    1.037E+02    4.0998633E+05    9.1577901E+03   -2.7318907E+04    4.0134994E+05   -9.1577922E+03    4.0998634E+05
   -3.53   400.000    1.025E+02    4.1135129E+05    9.0919770E+03   -2.7094307E+04    4.0121354E+05   -9.0919789E+03    4.1135130E+05
   -3.52   400.000    1.014E+02    4.1161685E+05    8.7416081E+03   -2.7120915E+04    4.0039151E+05   -8.7416099E+03    4.1161686E+05
   -3.51   400.000    1.003E+02    4.1121036E+05    8.1578789E+03   -2.7274854E+04    3.9948937E+05   -8.1578806E+03    4.1121037E+05
   -3.50   400.000    9.914E+01    4.1068769E+05    7.4180881E+03   -2.7444188E+04    3.9904484E+05   -7.4180897E+03    4.1068770E+05
   -3.49   400.000    9.801E+01    4.1060097E+05    6.6065972E+03   -2.7558024E+04    3.9944861E+05   -6.6065988E+03    4.1060098E+05
   -3.48   400.000    9.689E+01    4.1137678E+05    5.7965892E+03   -2.7596397E+04    4.0091722E+05   -5.7965908E+03    4.1137679E+05
   -3.47   400.000    9.576E+01    4.1324166E+05    5.0386704E+03   -2.7584496E+04    4.0350259E+05   -5.0386720E+03    4.1324167E+05
   -3.46   400.000    9.464E+01    4.1620818E+05    4.3580726E+03   -2.7581466E+04    4.0711732E+05   -4.3580743E+03    4.1620818E+05
   -3.45   400.000    9.351E+01    4.2011111E+05    3.7585839E+03   -2.7670924E+04    4.1156380E+05   -3.7585856E+03    4.2011112E+05
   -3.44   400.000    9.238E+01    4.2466999E+05    3.2302535E+03   -2.7951553E+04    4.1656614E+05   -3.2302553E+03    4.2466999E+05
   -3.43   400.000    9.125E+01    4.2955345E+05    2.7584712E+03   -2.8521049E+04    4.2180644E+05   -2.7584732E+03    4.2955345E+05
   -3.42   400.000    9.010E+01    4.3443011E+05    2.3323241E+03   -2.9450774E+04    4.2696175E+05   -2.3323263E+03    4.3443010E+05
   -3.41   400.000    8.895E+01    4.3900138E+05    1.9496363E+03   -3.0757965E+04    4.3173380E+05   -1.9496388E+03    4.3900138E+05
   -3.40   400.000    8.778E+01    4.4301895E+05    1.6161380E+03   -3.2388056E+04    4.3586596E+05   -1.6161409E+03    4.4301894E+05
   -3.39   400.000    8.659E+01    4.4629025E+05    1.3383299E+03   -3.4216156E+04    4.3914913E+05   -1.3383332E+03    4.4629024E+05
   -3.38   400.000    8.538E+01    4.4867624E+05    1.1133167E+03   -3.6067727E+04    4.4142659E+05   -1.1133202E+03    4.4867624E+05
   -3.37   400.000    8.414E+01    4.5008891E+05    9.2142825E+02   -3.7751852E+04    4.4260978E+05   -9.2143202E+02    4.5008890E+05
   -3.36   400.000    8.288E+01    4.5049906E+05    7.2648432E+02   -3.9098633E+04    4.4270949E+05   -7.2648829E+02    4.5049906E+05
   -3.35   400.000    8.157E+01    4.4996019E+05    4.8449300E+02   -3.9992127E+04    4.4187259E+05   -4.8449714E+02    4.4996019E+05
   -3.34   400.000    8.023E+01    4.4864047E+05    1.5708140E+02   -4.0390453E+04    4.4040322E+05   -1.5708569E+02    4.4864046E+05
   -3.33   400.000    7.884E+01    4.4684351E+05   -2.7618776E+02   -4.0327028E+04    4.3875235E+05    2.7618330E+02    4.4684350E+05
   -3.32   400.000    7.740E+01    4.4499818E+05   -8.1116441E+02   -3.9892075E+04    4.3747391E+05    8.1115977E+02    4.4499817E+05
   -3.31   400.000    7.591E+01    4.4361005E+05   -1.4191564E+03   -3.9198855E+04    4.3715740E+05    1.4191516E+03    4.4361005E+05
   -3.30   400.000    7.436E+01    4.4318338E+05   -2.0516476E+03   -3.8342630E+04    4.3834444E+05    2.0516426E+03    4.4318337E+05
   -3.29   400.000    7.275E+01    4.4413185E+05   -2.6471266E+03   -3.7362867E+04    4.4143193E+05    2.6471214E+03    4.4413184E+05
   -3.28   400.000    7.109E+01    4.4669845E+05   -3.1391752E+03   -3.6221591E+04    4.4657112E+05    3.1391699E+03    4.4669844E+05
   -3.27   400.000    6.937E+01    4.5090311E+05   -3.4666778E+03   -3.4809724E+04    4.5359182E+05    3.4666725E+03    4.5090310E+05
   -3.26   400.000    6.759E+01    4.5653415E+05   -3.5865396E+03   -3.2984509E+04    4.6199351E+05    3.5865345E+03    4.5653414E+05
   -3.25   400.000    6.576E+01    4.6319090E+05   -3.4863726E+03   -3.0626162E+04    4.7102982E+05    3.4863679E+03    4.6319090E+05
   -3.24   400.000    6.387E+01    4.7036820E+05   -3.1914365E+03   -2.7690281E+04    4.7987088E+05    3.1914323E+03    4.7036821E+05
   -3.23   400.000    6.192E+01    4.7755547E+05   -2.7601279E+03   -2.4233650E+04    4.8778535E+05    2.7601244E+03    4.7755547E+05
   -3.22   400.000    5.992E+01    4.8431807E+05   -2.2671802E+03   -2.0405273E+04    4.9427263E+05    2.2671776E+03    4.8431808E+05
   -3.21   400.000    5.787E+01    4.9034224E+05   -1.7807787E+03   -1.6411622E+04    4.9910622E+05    1.7807771E+03    4.9034224E+05
   -3.20   400.000    5.577E+01    4.9544653E+05   -1.3434783E+03   -1.2473955E+04    5.0229768E+05    1.3434778E+03    4.9544653E+05
   -3.19   400.000    5.364E+01    4.9957561E+05   -9.6413978E+02   -8.7938000E+03    5.0402293E+05    9.6414033E+02    4.9957562E+05
   -3.18   400.000    5.148E+01    5.0278630E+05   -6.2170216E+02   -5.5348728E+03    5.0454987E+05    6.2170375E+02    5.0278631E+05
   -3.17   400.000    4.930E+01    5.0522276E+05   -2.7660939E+02   -2.8214064E+03    5.0418126E+05    2.7661190E+02    5.0522276E+05
   -3.16   400.000    4.712E+01    5.0707297E+05    1.1537140E+02   -7.4660546E+02    5.0320515E+05   -1.1536816E+02    5.0707297E+05
   -3.15   400.000    4.496E+01    5.0850838E+05    5.9060127E+02    6.1739454E+02    5.0184264E+05   -5.9059752E+02    5.0850838E+05
   -3.14   400.000    4.283E+01    5.0962369E+05    1.1679643E+03    1.2146600E+03    5.0019702E+05   -1.1679603E+03    5.0962369E+05
   -3.13   400.000    4.075E+01    5.1040065E+05    1.8427479E+03    1.0077242E+03    4.9822473E+05   -1.8427438E+03    5.1040065E+05
   -3.12   400.000    3.873E+01    5.1071235E+05    2.5845781E+03   -1.5028661E+01    4.9575184E+05   -2.5845742E+03    5.1071235E+05
   -3.11   400.000    3.679E+01    5.1036814E+05    3.3408140E+03   -1.8306576E+03    4.9254452E+05   -3.3408104E+03    5.1036813E+05
   -3.10   400.000    3.493E+01    5.0918237E+05    4.0469775E+03   -4.3750583E+03    4.8841362E+05   -4.0469743E+03    5.0918237E+05
   -3.09   400.000    3.317E+01    5.0703986E+05    4.6434978E+03   -7.5402077E+03    4.8331078E+05   -4.6434952E+03    5.0703985E+05
   -3.08   400.000    3.150E+01    5.0393021E+05    5.0936306E+03   -1.1174966E+04    4.7737106E+05   -5.0936286E+03    5.0393020E+05
   -3.07   400.000    2.993E+01    4.9993493E+05    5.3944504E+03   -1.5087989E+04    4.7088034E+05   -5.3944492E+03    4.9993493E+05
   -3.06   400.000    2.845E+01    4.9517156E+05    5.5751555E+03   -1.9052611E+04    4.6418184E+05   -5.5751550E+03    4.9517156E+05
   -3.05   400.000    2.706E+01    4.8972099E+05    5.6840120E+03   -2.2817583E+04    4.5756626E+05   -5.6840122E+03    4.8972099E+05
   -3.04   400.000    2.577E+01    4.8357451E+05    5.7716887E+03   -2.6130942E+04    4.5119616E+05   -5.7716897E+03    4.8357451E+05
   -3.03   400.000    2.456E+01    4.7662572E+05    5.8792833E+03   -2.8780766E+04    4.4509121E+05   -5.8792850E+03    4.7662572E+05
   -3.02   400.000    2.342E+01    4.6870547E+05    6.0341435E+03   -3.0643499E+04    4.3916300E+05   -6.0341460E+03    4.6870547E+05
   -3.01   400.000    2.237E+01    4.5963445E+05    6.2505359E+03   -3.1716165E+04    4.3326271E+05   -6.2505390E+03    4.5963445E+05
   -3.00   400.000    2.138E+01    4.4926478E+05    6.5301462E+03   -3.2108939E+04    4.2720787E+05   -6.5301498E+03    4.4926478E+05
   -2.99   400.000    2.046E+01    4.3749865E+05    6.8601174E+03   -3.1995923E+04    4.2078072E+05   -6.8601214E+03    4.3749865E+05
   -2.98   400.000    1.959E+01    4.2429350E+05    7.2106299E+03   -3.1549270E+04    4.1371933E+05   -7.2106341E+03    4.2429349E+05
   -2.97   400.000    1.878E+01    4.0967275E+05    7.5360527E+03   -3.0891122E+04    4.0573475E+05   -7.5360571E+03    4.0967274E+05
   -2.96   400.000    1.802E+01    3.9375282E+05    7.7821859E+03   -3.0081883E+04    3.9657257E+05   -7.7821903E+03    3.9375281E+05
   -2.95   400.000    1.730E+01    3.7677840E+05    7.8985871E+03   -2.9139019E+04    3.8610487E+05   -7.8985914E+03    3.7677840E+05
   -2.94   400.000    1.662E+01    3.5914414E+05    7.8518890E+03   -2.8067276E+04    3.7440817E+05   -7.8518932E+03    3.5914413E+05
   -2.93   400.000    1.598E+01    3.4138220E+05    7.6351334E+03   -2.6883010E+04    3.6178262E+05   -7.6351375E+03    3.4138219E+05
   -2.92   400.000    1.538E+01    3.2411105E+05    7.2698508E+03   -2.5623716E+04    3.4869952E+05   -7.2698547E+03    3.2411104E+05
   -2.91   400.000    1.481E+01    3.0795915E+05    6.8008008E+03   -2.4341862E+04    3.3570534E+05   -6.8008046E+03    3.0795913E+05
   -2.90   400.000    1.427E+01    2.9348755E+05    6.2860603E+03   -2.3088746E+04    3.2332737E+05   -6.2860639E+03    2.9348754E+05
   -2.89   400.000    1.376E+01    2.8113143E+05    5.7861273E+03   -2.1898602E+04    3.1200978E+05   -5.7861305E+03    2.8113142E+05
   -2.88   400.000    1.328E+01    2.7116701E+05    5.3549064E+03   -2.0782876E+04    3.0208022E+05   -5.3549092E+03    2.7116701E+05
   -2.87   400.000    1.283E+01    2.6369729E+05    5.0338298E+03   -1.9737949E+04    2.9373188E+05   -5.0338321E+03    2.6369728E+05
   -2.86   400.000    1.239E+01    2.5864676E+05    4.8489176E+03   -1.8761016E+04    2.8701252E+05   -4.8489194E+03    2.5864675E+05
   -2.85   400.000    1.199E+01    2.5576289E+05    4.8097535E+03   -1.7864939E+04    2.8182694E+05   -4.8097548E+03    2.5576289E+05
   -2.84   400.000    1.160E+01    2.5463311E+05    4.9093632E+03   -1.7086201E+04    2.7796655E+05   -4.9093639E+03    2.5463311E+05
   -2.83   400.000    1.124E+01    2.5473027E+05    5.1248985E+03   -1.6486176E+04    2.7517018E+05   -5.1248988E+03    2.5473027E+05
   -2.82   400.000    1.089E+01    2.5549116E+05    5.4200916E+03   -1.6148955E+04    2.7320221E+05   -5.4200915E+03    2.5549116E+05
   -2.81   400.000    1.056E+01    2.5641611E+05    5.7502976E+03   -1.6176791E+04    2.7191929E+05   -5.7502974E+03    2.5641611E+05
   -2.80   400.000    1.025E+01    2.5716166E+05    6.0693426E+03   -1.6680348E+04    2.7129855E+05   -6.0693424E+03    2.5716166E+05
   -2.79   400.000    9.956E+00    2.5759477E+05    6.3360323E+03   -1.7760652E+04    2.7141854E+05   -6.3360323E+03    2.5759477E+05
   -2.78   400.000    9.672E+00    2.5779188E+05    6.5186806E+03   -1.9484031E+04    2.7240700E+05   -6.5186809E+03    2.5779188E+05
   -2.77   400.000    9.400E+00    2.5799048E+05    6.5975851E+03   -2.1855934E+04    2.7438294E+05   -6.5975858E+03    2.5799048E+05
   -2.76   400.000    9.137E+00    2.5851723E+05    6.5659036E+03   -2.4800168E+04    2.7741532E+05   -6.5659048E+03    2.5851723E+05
   -2.75   400.000    8.882E+00    2.5971333E+05    6.4283877E+03   -2.8148461E+04    2.8150292E+05   -6.4283896E+03    2.5971332E+05
   -2.74   400.000    8.635E+00    2.6186408E+05    6.1967039E+03   -3.1644647E+04    2.8656330E+05   -6.1967064E+03    2.6186408E+05
   -2.73   400.000    8.392E+00    2.6513220E+05    5.8813696E+03   -3.4967028E+04    2.9241576E+05   -5.8813726E+03    2.6513220E+05
   -2.72   400.000    8.154E+00    2.6949984E+05    5.4833655E+03   -3.7767589E+04    2.9875586E+05   -5.4833691E+03    2.6949984E+05
   -2.71   400.000    7.919E+00    2.7473285E+05    4.9907587E+03   -3.9718919E+04    3.0513654E+05   -4.9907627E+03    2.7473285E+05
   -2.70   400.000    7.686E+00    2.8038070E+05    4.3842300E+03   -4.0556022E+04    3.1097965E+05   -4.3842342E+03    2.8038070E+05
   -2.69   400.000    7.455E+00    2.8581759E+05    3.6499181E+03   -4.0105190E+04    3.1563127E+05   -3.6499223E+03    2.8581759E+05
   -2.68   400.000    7.225E+00    2.9031920E+05    2.7923012E+03   -3.8301664E+04    3.1845083E+05   -2.7923053E+03    2.9031920E+05
   -2.67   400.000    6.996E+00    2.9316043E+05    1.8390488E+03   -3.5202472E+04    3.1890459E+05   -1.8390526E+03    2.9316043E+05
   -2.66   400.000    6.770E+00    2.9371260E+05    8.3509424E+02   -3.0994888E+04    3.1663020E+05   -8.3509773E+02    2.9371260E+05
   -2.65   400.000    6.546E+00    2.9151625E+05   -1.6965699E+02   -2.5988838E+04    3.1145400E+05    1.6965393E+02    2.9151626E+05
   -2.64   400.000    6.325E+00    2.8631269E+05   -1.1312615E+03   -2.0577011E+04    3.0336425E+05    1.1312590E+03    2.8631269E+05
   -2.63   400.000    6.110E+00    2.7803384E+05   -2.0160098E+03   -1.5160769E+04    2.9246150E+05    2.0160078E+03    2.7803384E+05
   -2.62   400.000    5.899E+00    2.6676774E+05   -2.7980378E+03   -1.0067084E+04    2.7891325E+05    2.7980363E+03    2.6676774E+05
   -2.61   400.000    5.695E+00    2.5272346E+05   -3.4544128E+03   -5.4972087E+03    2.6293405E+05    3.4544119E+03    2.5272347E+05
   -2.60   400.000    5.500E+00    2.3621172E+05   -3.9625946E+03   -1.5319765E+03    2.4479708E+05    3.9625943E+03    2.3621173E+05
   -2.59   400.000    5.313E+00    2.1764238E+05   -4.3026975E+03    1.8186716E+03    2.2486572E+05    4.3026977E+03    2.1764239E+05
   -2.58   400.000    5.137E+00    1.9752692E+05   -4.4631864E+03    4.5611131E+03    2.0362149E+05    4.4631871E+03    1.9752692E+05
   -2.57   400.000    4.972E+00    1.7646896E+05   -4.4462450E+03    6.6920147E+03    1.8166493E+05    4.4462460E+03    1.7646896E+05
   -2.56   400.000    4.820E+00    1.5513159E+05   -4.2695942E+03    8.2059682E+03    1.5967953E+05    4.2695956E+03    1.5513159E+05
   -2.55   400.000    4.682E+00    1.3418275E+05   -3.9640197E+03    9.1177414E+03    1.3836770E+05    3.9640212E+03    1.3418275E+05
   -2.54   400.000    4.557E+00    1.1423218E+05   -3.5680364E+03    9.4772262E+03    1.1838030E+05    3.5680380E+03    1.1423218E+05
   -2.53   400.000    4.446E+00    9.5777493E+04   -3.1217887E+03    9.3684733E+03    1.0026101E+05    3.1217903E+03    9.5777493E+04
   -2.52   400.000    4.348E+00    7.9171967E+04   -2.6618017E+03    8.8976657E+03    8.4416572E+04    2.6618032E+03    7.9171967E+04
   -2.51   400.000    4.262E+00    6.4616917E+04   -2.2174221E+03    8.1787237E+03    7.1112604E+04    2.2174236E+03    6.4616917E+04
   -2.50   400.000    4.185E+00    5.2174410E+04   -1.8091777E+03    7.3214875E+03    6.0488420E+04    1.8091790E+03    5.2174409E+04
   -2.49   400.000    4.116E+00    4.1792796E+04   -1.4488515E+03    6.4230682E+03    5.2582559E+04    1.4488527E+03    4.1792795E+04
   -2.48   400.000    4.052E+00    3.3337879E+04   -1.1407881E+03    5.5616600E+03    4.7360745E+04    1.1407892E+03    3.3337878E+04
   -2.47   400.000    3.990E+00    2.6624245E+04   -8.8382441E+02    4.7927943E+03    4.4738513E+04    8.8382553E+02    2.6624244E+04
   -2.46   400.000    3.928E+00    2.1443074E+04   -6.7330406E+02    4.1484284E+03    4.4591995E+04    6.7330519E+02    2.1443074E+04
   -2.45   400.000    3.862E+00    1.7584342E+04   -5.0281280E+02    3.6387675E+03    4.6753172E+04    5.0281399E+02    1.7584342E+04
   -2.44   400.000    3.791E+00    1.4852750E+04   -3.6548111E+02    3.2560664E+03    5.0990473E+04    3.6548240E+02    1.4852749E+04
   -2.43   400.000    3.711E+00    1.3077898E+04   -2.5484861E+02    2.9795113E+03    5.6981328E+04    2.5485005E+02    1.3077897E+04
   -2.42   400.000    3.622E+00    1.2119842E+04   -1.6535812E+02    2.7805529E+03    6.4288489E+04    1.6535972E+02    1.2119841E+04
   -2.41   400.000    3.521E+00    1.1871071E+04   -9.2559072E+01    2.6282872E+03    7.2354190E+04    9.2560842E+01    1.1871070E+04
   -2.40   400.000    3.408E+00    1.2255191E+04   -3.3089490E+01    2.4944365E+03    8.0523267E+04    3.3091427E+01    1.2255191E+04
   -2.39   400.000    3.283E+00    1.3221912E+04    1.5502060E+01    2.3573420E+03    8.8098494E+04   -1.5499982E+01    1.3221912E+04
   -2.38   400.000    3.145E+00    1.4737712E+04    5.5030783E+01    2.2044616E+03    9.4420901E+04   -5.5028604E+01    1.4737713E+04
   -2.37   400.000    2.994E+00    1.6772265E+04    8.6976370E+01    2.0331623E+03    9.8957856E+04   -8.6974142E+01    1.6772265E+04
   -2.36   400.000    2.830E+00    1.9281970E+04    1.1273204E+02    1.8498707E+03    1.0137557E+05   -1.1272981E+02    1.9281971E+04
   -2.35   400.000    2.655E+00    2.2193526E+04    1.3372311E+02    1.6677360E+03    1.0157468E+05   -1.3372093E+02    2.2193527E+04
   -2.34   400.000    2.469E+00    2.5391825E+04    1.5135255E+02    1.5030216E+03    9.9680051E+04   -1.5135043E+02    2.5391826E+04
   -2.33   400.000    2.275E+00    2.8716832E+04    1.6681166E+02    1.3707221E+03    9.5993259E+04   -1.6680963E+02    2.8716834E+04
   -2.32   400.000    2.074E+00    3.1972745E+04    1.8086478E+02    1.2803153E+03    9.0926213E+04   -1.8086284E+02    3.1972747E+04
   -2.31   400.000    1.869E+00    3.4949623E+04    1.9371355E+02    1.2328341E+03    8.4932899E+04   -1.9371170E+02    3.4949625E+04
   -2.30   400.000    1.664E+00    3.7454023E+04    2.0498750E+02    1.2202716E+03    7.8450373E+04   -2.0498576E+02    3.7454025E+04
   -2.29   400.000    1.462E+00    3.9342416E+04    2.1386131E+02    1.2276432E+03    7.1857322E+04   -2.1385971E+02    3.9342418E+04
   -2.28   400.000    1.266E+00    4.0550421E+04    2.1928385E+02    1.2370265E+03    6.5456517E+04   -2.1928243E+02    4.0550423E+04
   -2.27   400.000    1.079E+00    4.1111958E+04    2.2028298E+02    1.2320653E+03    5.9481328E+04   -2.2028177E+02    4.1111961E+04
   -2.26   400.000    9.044E-01    4.1164665E+04    2.1626909E+02    1.2013009E+03    5.4118244E+04   -2.1626815E+02    4.1164668E+04
   -2.25   400.000    7.429E-01    4.0940336E+04    2.0723909E+02    1.1394062E+03    4.9532790E+04   -2.0723847E+02    4.0940339E+04
   -2.24   400.000    5.958E-01    4.0741563E+04    1.9381138E+02    1.0464257E+03    4.5888021E+04   -1.9381112E+02    4.0741567E+04
   -2.23   400.000    4.636E-01    4.0908312E+04    1.7708772E+02    9.2580368E+02    4.3350587E+04   -1.7708784E+02    4.0908317E+04
   -2.22   400.000    3.458E-01    4.1780837E+04    1.5839961E+02    7.8209635E+02    4.2085560E+04   -1.5840013E+02    4.1780842E+04
   -2.21   400.000    2.412E-01    4.3666696E+04    1.3902805E+02    6.1912649E+02    4.2245032E+04   -1.3902898E+02    4.3666702E+04
   -2.20   400.000    1.481E-01    4.6818394E+04    1.1997957E+02    4.3922123E+02    4.3956390E+04   -1.1998088E+02    4.6818402E+04
   -2.19   400.000    6.454E-02    5.1424356E+04    1.0186823E+02    2.4400309E+02    4.7314666E+04   -1.0186988E+02    5.1424365E+04
   -2.18   400.000   -1.165E-02    5.7611423E+04    8.4909676E+01    3.6650625E+01    5.2380564E+04   -8.4911575E+01    5.7611433E+04
   -2.17   400.000   -8.260E-02    6.5453975E+04    6.8997150E+01   -1.7545310E+02    5.9183241E+04   -6.8999201E+01    6.5453987E+04
   -2.16   400.000   -1.503E-01    7.4984160E+04    5.3815218E+01   -3.7963579E+02    6.7725617E+04   -5.3817300E+01    7.4984173E+04
   -2.15   400.000   -2.164E-01    8.6199593E+04    3.8952231E+01   -5.6009967E+02    7.7990122E+04   -3.8954224E+01    8.6199608E+04
   -2.14   400.000   -2.824E-01    9.9068262E+04    2.3990428E+01   -7.0318624E+02    8.9943136E+04   -2.3992230E+01    9.9068277E+04
   -2.13   400.000   -3.493E-01    1.1353330E+05    8.5695683E+00   -8.0325249E+02    1.0353591E+05   -8.5711090E+00    1.1353331E+05
   -2.12   400.000   -4.180E-01    1.2952078E+05   -7.5719357E+00   -8.6570753E+02    1.1869947E+05    7.5706823E+00    1.2952080E+05
   -2.11   400.000   -4.891E-01    1.4695151E+05   -2.4578180E+01   -9.0502306E+02    1.3533351E+05    2.4577197E+01    1.4695153E+05
   -2.10   400.000   -5.630E-01    1.6575477E+05   -4.2488960E+01   -9.3811312E+02    1.5329526E+05    4.2488192E+01    1.6575479E+05
   -2.09   400.000   -6.401E-01    1.8588080E+05   -6.1298172E+01   -9.7593224E+02    1.7239991E+05    6.1297530E+01    1.8588082E+05
   -2.08   400.000   -7.206E-01    2.0730798E+05   -8.1055097E+01   -1.0174861E+03    1.9244203E+05    8.1054459E+01    2.0730801E+05
   -2.07   400.000   -8.048E-01    2.3004126E+05   -1.0196912E+02   -1.0498384E+03    2.1323742E+05    1.0196833E+02    2.3004129E+05
   -2.06   400.000   -8.929E-01    2.5410064E+05   -1.2443173E+02   -1.0546290E+03    2.3467368E+05    1.2443058E+02    2.5410067E+05
   -2.05   400.000   -9.852E-01    2.7950549E+05   -1.4883837E+02   -1.0174516E+03    2.5675510E+05    1.4883660E+02    2.7950553E+05
   -2.04   400.000   -1.082E+00    3.0626324E+05   -1.7510965E+02   -9.3445537E+02    2.7962874E+05    1.7510696E+02    3.0626328E+05
   -2.03   400.000   -1.183E+00    3.3436357E+05   -2.0191538E+02   -8.1285081E+02    3.0357679E+05    2.0191145E+02    3.3436361E+05
   -2.02   400.000   -1.289E+00    3.6376600E+05   -2.2582738E+02   -6.6685428E+02    3.2895574E+05    2.2582193E+02    3.6376604E+05
   -2.01   400.000   -1.399E+00    3.9436889E+05   -2.4093212E+02   -5.1378928E+02    3.5607409E+05    2.4092495E+02    3.9436894E+05
   -2.00   400.000   -1.514E+00    4.2596883E+05   -2.3961127E+02   -3.7392129E+02    3.8503520E+05    2.3960226E+02    4.2596888E+05
   -1.99   400.000   -1.633E+00    4.5824236E+05   -2.1489205E+02   -2.7348532E+02    4.1560935E+05    2.1488118E+02    4.5824241E+05
   -1.98   400.000   -1.757E+00    4.9077961E+05   -1.6384045E+02   -2.4706185E+02    4.4720482E+05    1.6382781E+02    4.9077967E+05
   -1.97   400.000   -1.885E+00    5.2316858E+05   -9.0450318E+01   -3.3531234E+02    4.7896744E+05    9.0436096E+01    5.2316864E+05
   -1.96   400.000   -2.018E+00    5.5509581E+05   -6.3548172E+00   -5.7626216E+02    5.0997941E+05    6.3392322E+00    5.5509587E+05
   -1.95   400.000   -2.154E+00    5.8642234E+05    7.1172667E+01   -9.9128653E+02    5.3948993E+05   -7.1189336E+01    5.8642241E+05
   -1.94   400.000   -2.293E+00    6.1721569E+05    1.2297056E+02   -1.5706705E+03    5.6710875E+05   -1.2298800E+02    6.1721576E+05
   -1.93   400.000   -2.436E+00    6.4774201E+05    1.3201266E+02   -2.2671683E+03    5.9291230E+05   -1.3203050E+02    6.4774208E+05
   -1.92   400.000   -2.582E+00    6.7842056E+05    8.6879907E+01   -3.0052171E+03    6.1743549E+05   -8.6897765E+01    6.7842064E+05
   -1.91   400.000   -2.731E+00    7.0972423E+05   -1.5310080E+01   -3.7053360E+03    6.4154954E+05    1.5292608E+01    7.0972430E+05
   -1.90   400.000   -2.884E+00    7.4201204E+05   -1.6643999E+02   -4.3125546E+03    6.6625990E+05    1.6642330E+02    7.4201211E+05
   -1.89   400.000   -3.040E+00    7.7532259E+05   -3.4597438E+02   -4.8141691E+03    6.9248085E+05    3.4595884E+02    7.7532266E+05
   -1.88   400.000   -3.200E+00    8.0921118E+05   -5.2180795E+02   -5.2390431E+03    7.2084036E+05    5.2179382E+02    8.0921124E+05
   -1.87   400.000   -3.364E+00    8.4272767E+05   -6.5451737E+02   -5.6411456E+03    7.5154464E+05    6.5450475E+02    8.4272774E+05
   -1.86   400.000   -3.533E+00    8.7458161E+05   -7.0506054E+02   -6.0759834E+03    7.8431437E+05    7.0504936E+02    8.7458167E+05
   -1.85   400.000   -3.706E+00    9.0345251E+05   -6.4429631E+02   -6.5788344E+03    8.1840738E+05    6.4428633E+02    9.0345256E+05
   -1.84   400.000   -3.884E+00    9.2833842E+05   -4.6145685E+02   -7.1511274E+03    8.5274683E+05    4.6144772E+02    9.2833848E+05
   -1.83   400.000   -4.064E+00    9.4883056E+05   -1.6861498E+02   -7.7577888E+03    8.8614726E+05    1.6860635E+02    9.4883062E+05
   -1.82   400.000   -4.249E+00    9.6524370E+05    2.0078451E+02   -8.3349727E+03    9.1757605E+05   -2.0079294E+02    9.6524375E+05
   -1.81   400.000   -4.435E+00    9.7858316E+05    5.9927315E+02   -8.8059988E+03    9.4635202E+05   -5.9928151E+02    9.7858321E+05
   -1.80   400.000   -4.624E+00    9.9037029E+05    9.7589574E+02   -9.1030252E+03    9.7221337E+05   -9.7590403E+02    9.9037035E+05
   -1.79   400.000   -4.814E+00    1.0023782E+06    1.2856531E+03   -9.1895817E+03    9.9526854E+05   -1.2856612E+03    1.0023782E+06
   -1.78   400.000   -5.006E+00    1.0163422E+06    1.4953351E+03   -9.0744677E+03    1.0159046E+06   -1.4953426E+03    1.0163422E+06
   -1.77   400.000   -5.199E+00    1.0336948E+06    1.5875657E+03   -8.8072646E+03    1.0347146E+06   -1.5875724E+03    1.0336949E+06
   -1.76   400.000   -5.395E+00    1.0553463E+06    1.5664773E+03   -8.4549309E+03    1.0524411E+06   -1.5664829E+03    1.0553463E+06
   -1.75   400.000   -5.592E+00    1.0815155E+06    1.4633489E+03   -8.0718437E+03    1.0698924E+06   -1.4633531E+03    1.0815155E+06
   -1.74   400.000   -5.791E+00    1.1116335E+06    1.3337388E+03   -7.6803093E+03    1.0878020E+06   -1.3337415E+03    1.1116336E+06
   -1.73   400.000   -5.994E+00    1.1443532E+06    1.2393963E+03   -7.2707860E+03    1.1066485E+06   -1.2393976E+03    1.1443533E+06
   -1.72   400.000   -6.199E+00    1.1776952E+06    1.2203262E+03   -6.8184218E+03    1.1264975E+06   -1.2203266E+03    1.1776953E+06
   -1.71   400.000   -6.408E+00    1.2093318E+06    1.2732615E+03   -6.3049342E+03    1.1469322E+06   -1.2732615E+03    1.2093318E+06
   -1.70   400.000   -6.620E+00    1.2369771E+06    1.3510732E+03   -5.7355404E+03    1.1671199E+06   -1.3510735E+03    1.2369771E+06
   -1.69   400.000   -6.834E+00    1.2588233E+06    1.3850621E+03   -5.1459488E+03    1.1860128E+06   -1.3850632E+03    1.2588234E+06
   -1.68   400.000   -7.050E+00    1.2739339E+06    1.3190274E+03   -4.5990780E+03    1.2026218E+06   -1.3190298E+03    1.2739340E+06
   -1.67   400.000   -7.269E+00    1.2824877E+06    1.1379500E+03   -4.1727960E+03    1.2162635E+06   -1.1379538E+03    1.2824878E+06
   -1.66   400.000   -7.488E+00    1.2857793E+06    8.7675608E+02   -3.9409197E+03    1.2266993E+06   -8.7676121E+02    1.2857794E+06
   -1.65   400.000   -7.709E+00    1.2859413E+06    6.0475843E+02   -3.9534726E+03    1.2341378E+06   -6.0476452E+02    1.2859414E+06
   -1.64   400.000   -7.931E+00    1.2854420E+06    3.9453375E+02   -4.2264751E+03    1.2391265E+06   -3.9454030E+02    1.2854421E+06
   -1.63   400.000   -8.155E+00    1.2864927E+06    2.9229504E+02   -4.7486967E+03    1.2423736E+06   -2.9230144E+02    1.2864928E+06
   -1.62   400.000   -8.381E+00    1.2905415E+06    3.0463745E+02   -5.5004106E+03    1.2445505E+06   -3.0464305E+02    1.2905416E+06
   -1.61   400.000   -8.610E+00    1.2980077E+06    4.0595163E+02   -6.4670806E+03    1.2461219E+06   -4.0595572E+02    1.2980078E+06
   -1.60   400.000   -8.842E+00    1.3083222E+06    5.5934187E+02   -7.6327152E+03    1.2472322E+06   -5.5934375E+02    1.3083223E+06
   -1.59   400.000   -9.078E+00    1.3202235E+06    7.3815620E+02   -8.9559182E+03    1.2476607E+06   -7.3815525E+02    1.3202236E+06
   -1.58   400.000   -9.318E+00    1.3321859E+06    9.3708136E+02   -1.0352511E+04    1.2468650E+06   -9.3707717E+02    1.3321860E+06
   -1.57   400.000   -9.562E+00    1.3428671E+06    1.1685433E+03   -1.1710924E+04    1.2441547E+06   -1.1685357E+03    1.3428672E+06
   -1.56   400.000   -9.811E+00    1.3514950E+06    1.4476068E+03   -1.2941879E+04    1.2390106E+06   -1.4475962E+03    1.3514951E+06
   -1.55   400.000   -1.006E+01    1.3581100E+06    1.7735561E+03   -1.4030756E+04    1.2314628E+06   -1.7735430E+03    1.3581101E+06
   -1.54   400.000   -1.032E+01    1.3635580E+06    2.1176785E+03   -1.5052018E+04    1.2223374E+06   -2.1176637E+03    1.3635581E+06
   -1.53   400.000   -1.058E+01    1.3691889E+06    2.4246336E+03   -1.6131555E+04    1.2131973E+06   -2.4246180E+03    1.3691890E+06
   -1.52   400.000   -1.084E+01    1.3763450E+06    2.6298329E+03   -1.7380020E+04    1.2059519E+06   -2.6298170E+03    1.3763451E+06
   -1.51   400.000   -1.110E+01    1.3858453E+06    2.6884076E+03   -1.8835364E+04    1.2023008E+06   -2.6883922E+03    1.3858454E+06
   -1.50   400.000   -1.137E+01    1.3976775E+06    2.6043236E+03   -2.0439336E+04    1.2032598E+06   -2.6043088E+03    1.3976776E+06
   -1.49   400.000   -1.164E+01    1.4110135E+06    2.4442717E+03   -2.2050032E+04    1.2089697E+06   -2.4442576E+03    1.4110136E+06
   -1.48   400.000   -1.191E+01    1.4245315E+06    2.3241950E+03   -2.3479547E+04    1.2188485E+06   -2.3241815E+03    1.4245316E+06
   -1.47   400.000   -1.218E+01    1.4369209E+06    2.3686363E+03   -2.4544508E+04    1.2319960E+06   -2.3686232E+03    1.4369210E+06
   -1.46   400.000   -1.246E+01    1.4473849E+06    2.6597883E+03   -2.5117273E+04    1.2476614E+06   -2.6597753E+03    1.4473850E+06
   -1.45   400.000   -1.274E+01    1.4559696E+06    3.2022875E+03   -2.5161397E+04    1.2655720E+06   -3.2022743E+03    1.4559697E+06
   -1.44   400.000   -1.302E+01    1.4636138E+06    3.9219769E+03   -2.4735918E+04    1.2859861E+06   -3.9219632E+03    1.4636139E+06
   -1.43   400.000   -1.331E+01    1.4719172E+06    4.6969521E+03   -2.3969506E+04    1.3094554E+06   -4.6969373E+03    1.4719172E+06
   -1.42   400.000   -1.360E+01    1.4827210E+06    5.4026965E+03   -2.3026415E+04    1.3364039E+06   -5.4026803E+03    1.4827210E+06
   -1.41   400.000   -1.389E+01    1.4976475E+06    5.9498867E+03   -2.2086503E+04    1.3667186E+06   -5.9498686E+03    1.4976475E+06
   -1.40   400.000   -1.419E+01    1.5177393E+06    6.3010619E+03   -2.1338513E+04    1.3995502E+06   -6.3010416E+03    1.5177394E+06
   -1.39   400.000   -1.450E+01    1.5432830E+06    6.4637032E+03   -2.0966834E+04    1.4334305E+06   -6.4636806E+03    1.5432830E+06
   -1.38   400.000   -1.480E+01    1.5738288E+06    6.4670449E+03   -2.1119207E+04    1.4666689E+06   -6.4670200E+03    1.5738288E+06
   -1.37   400.000   -1.511E+01    1.6083653E+06    6.3348779E+03   -2.1865207E+04    1.4978541E+06   -6.3348512E+03    1.6083653E+06
   -1.36   400.000   -1.542E+01    1.6455612E+06    6.0659485E+03   -2.3167686E+04    1.5262384E+06   -6.0659206E+03    1.6455612E+06
   -1.35   400.000   -1.574E+01    1.6839683E+06    5.6295715E+03   -2.4883184E+04    1.5518563E+06   -5.6295436E+03    1.6839683E+06
   -1.34   400.000   -1.606E+01    1.7220969E+06    4.9790340E+03   -2.6792581E+04    1.5753825E+06   -4.9790071E+03    1.7220969E+06
   -1.33   400.000   -1.638E+01    1.7583480E+06    4.0789272E+03   -2.8650895E+04    1.5978560E+06   -4.0789022E+03    1.7583481E+06
   -1.32   400.000   -1.671E+01    1.7908811E+06    2.9347926E+03   -3.0239674E+04    1.6204033E+06   -2.9347701E+03    1.7908811E+06
   -1.31   400.000   -1.703E+01    1.8175705E+06    1.6090018E+03   -3.1407143E+04    1.6440116E+06   -1.6089819E+03    1.8175706E+06
   -1.30   400.000   -1.736E+01    1.8362182E+06    2.1233493E+02   -3.2088362E+04    1.6693429E+06   -2.1231730E+02    1.8362182E+06
   -1.29   400.000   -1.769E+01    1.8450840E+06   -1.1239447E+03   -3.2305510E+04    1.6965822E+06    1.1239608E+03    1.8450840E+06
   -1.28   400.000   -1.802E+01    1.8436045E+06   -2.2774492E+03   -3.2153148E+04    1.7253598E+06    2.2774644E+03    1.8436045E+06
   -1.27   400.000   -1.835E+01    1.8329885E+06   -3.1496628E+03   -3.1774590E+04    1.7547804E+06    3.1496779E+03    1.8329885E+06
   -1.26   400.000   -1.868E+01    1.8163716E+06   -3.6670614E+03   -3.1334568E+04    1.7835402E+06    3.6670768E+03    1.8163716E+06
   -1.25   400.000   -1.901E+01    1.7984076E+06   -3.7818331E+03   -3.0990767E+04    1.8100688E+06    3.7818487E+03    1.7984076E+06
   -1.24   400.000   -1.934E+01    1.7844346E+06   -3.4822425E+03   -3.0865057E+04    1.8326737E+06    3.4822580E+03    1.7844346E+06
   -1.23   400.000   -1.968E+01    1.7794820E+06   -2.8085022E+03   -3.1019215E+04    1.8497511E+06    2.8085170E+03    1.7794820E+06
   -1.22   400.000   -2.001E+01    1.7873482E+06   -1.8608100E+03   -3.1446967E+04    1.8601322E+06    1.8608235E+03    1.7873482E+06
   -1.21   400.000   -2.035E+01    1.8099027E+06   -7.8976970E+02   -3.2092209E+04    1.8635203E+06    7.8978129E+02    1.8099027E+06
   -1.20   400.000   -2.070E+01    1.8467459E+06    2.2943573E+02   -3.2886980E+04    1.8608322E+06   -2.2942617E+02    1.8467459E+06
   -1.19   400.000   -2.105E+01    1.8953649E+06    1.0290294E+03   -3.3787297E+04    1.8542409E+06   -1.0290216E+03    1.8953649E+06
   -1.18   400.000   -2.140E+01    1.9518312E+06    1.4762140E+03   -3.4788231E+04    1.8468688E+06   -1.4762074E+03    1.9518312E+06
   -1.17   400.000   -2.177E+01    2.0118714E+06    1.4916126E+03   -3.5918063E+04    1.8422832E+06   -1.4916065E+03    2.0118714E+06
   -1.16   400.000   -2.214E+01    2.0719283E+06    1.0591943E+03   -3.7222696E+04    1.8440100E+06   -1.0591878E+03    2.0719283E+06
   -1.15   400.000   -2.251E+01    2.1297928E+06    2.2848104E+02   -3.8745255E+04    1.8551713E+06   -2.2847347E+02    2.1297928E+06
   -1.14   400.000   -2.290E+01    2.1846037E+06   -8.9299774E+02   -4.0498033E+04    1.8781993E+06    8.9300711E+02    2.1846037E+06
   -1.13   400.000   -2.329E+01    2.2363476E+06   -2.1595530E+03   -4.2432334E+04    1.9145538E+06    2.1595648E+03    2.2363476E+06
   -1.12   400.000   -2.369E+01    2.2852208E+06   -3.4184249E+03   -4.4425790E+04    1.9644673E+06    3.4184395E+03    2.2852208E+06
   -1.11   400.000   -2.410E+01    2.3311939E+06   -4.5459375E+03   -4.6302329E+04    2.0268363E+06    4.5459552E+03    2.3311939E+06
   -1.10   400.000   -2.451E+01    2.3739107E+06   -5.4788940E+03   -4.7875389E+04    2.0993312E+06    5.4789148E+03    2.3739107E+06
   -1.09   400.000   -2.494E+01    2.4128362E+06   -6.2303655E+03   -4.8986222E+04    2.1786637E+06    6.2303889E+03    2.4128362E+06
   -1.08   400.000   -2.537E+01    2.4474807E+06   -6.8816824E+03   -4.9518598E+04    2.2608825E+06    6.8817077E+03    2.4474807E+06
   -1.07   400.000   -2.581E+01    2.4775905E+06   -7.5502007E+03   -4.9400876E+04    2.3416385E+06    7.5502271E+03    2.4775905E+06
   -1.06   400.000   -2.626E+01    2.5032930E+06   -8.3435125E+03   -4.8623366E+04    2.4164930E+06    8.3435390E+03    2.5032930E+06
   -1.05   400.000   -2.671E+01    2.5251930E+06   -9.3182378E+03   -4.7279139E+04    2.4813784E+06    9.3182638E+03    2.5251930E+06
   -1.04   400.000   -2.717E+01    2.5443546E+06   -1.0458998E+04   -4.5597194E+04    2.5331943E+06    1.0459023E+04    2.5443546E+06
   -1.03   400.000   -2.764E+01    2.5620928E+06   -1.1682371E+04   -4.3923412E+04    2.5703535E+06    1.1682394E+04    2.5620929E+06
   -1.02   400.000   -2.810E+01    2.5796117E+06   -1.2859705E+04   -4.2638799E+04    2.5930587E+06    1.2859726E+04    2.5796117E+06
   -1.01   400.000   -2.857E+01    2.5976747E+06   -1.3847646E+04   -4.2055449E+04    2.6032195E+06    1.3847665E+04    2.5976747E+06
   -1.00   400.000   -2.905E+01    2.6165141E+06   -1.4516692E+04   -4.2348844E+04    2.6040952E+06    1.4516708E+04    2.6165141E+06
   -0.99   400.000   -2.952E+01    2.6360289E+06   -1.4773857E+04   -4.3556151E+04    2.5998150E+06    1.4773869E+04    2.6360289E+06
   -0.98   400.000   -2.999E+01    2.6561210E+06   -1.4581041E+04   -4.5626208E+04    2.5948586E+06    1.4581051E+04    2.6561211E+06
   -0.97   400.000   -3.046E+01    2.6769360E+06   -1.3970356E+04   -4.8485109E+04    2.5934820E+06    1.3970361E+04    2.6769360E+06
   -0.96   400.000   -3.093E+01    2.6988688E+06   -1.3050760E+04   -5.2086127E+04    2.5990829E+06    1.3050760E+04    2.6988688E+06
   -0.95   400.000   -3.140E+01    2.7223712E+06   -1.1994786E+04   -5.6424714E+04    2.6136090E+06    1.1994781E+04    2.7223712E+06
   -0.94   400.000   -3.187E+01    2.7477097E+06   -1.0998665E+04   -6.1511316E+04    2.6372073E+06    1.0998656E+04    2.7477098E+06
   -0.93   400.000   -3.234E+01    2.7748004E+06   -1.0223376E+04   -6.7315297E+04    2.6682784E+06    1.0223363E+04    2.7748005E+06
   -0.92   400.000   -3.281E+01    2.8031362E+06   -9.7383206E+03   -7.3718927E+04    2.7039520E+06    9.7383046E+03    2.8031362E+06
   -0.91   400.000   -3.327E+01    2.8317561E+06   -9.4930285E+03   -8.0526604E+04    2.7408360E+06    9.4930101E+03    2.8317562E+06
   -0.90   400.000   -3.374E+01    2.8592459E+06   -9.3321912E+03   -8.7543353E+04    2.7758040E+06    9.3321714E+03    2.8592459E+06
   -0.89   400.000   -3.420E+01    2.8838351E+06   -9.0504997E+03   -9.4682933E+04    2.8065752E+06    9.0504791E+03    2.8838352E+06
   -0.88   400.000   -3.466E+01    2.9036539E+06   -8.4654379E+03   -1.0203008E+05    2.8319224E+06    8.4654169E+03    2.9036540E+06
   -0.87   400.000   -3.512E+01    2.9171104E+06   -7.4770360E+03   -1.0979679E+05    2.8515081E+06    7.4770146E+03    2.9171104E+06
   -0.86   400.000   -3.558E+01    2.9232722E+06   -6.0887235E+03   -1.1817667E+05    2.8655288E+06    6.0887016E+03    2.9232723E+06
   -0.85   400.000   -3.604E+01    2.9221540E+06   -4.3817520E+03   -1.2717237E+05    2.8744199E+06    4.3817292E+03    2.9221540E+06
   -0.84   400.000   -3.650E+01    2.9148798E+06   -2.4585806E+03   -1.3649549E+05    2.8787875E+06    2.4585565E+03    2.9148798E+06
   -0.83   400.000   -3.696E+01    2.9036988E+06   -3.8577415E+02   -1.4559378E+05    2.8795658E+06    3.8574799E+02    2.9036989E+06
   -0.82   400.000   -3.742E+01    2.8917828E+06    1.8342337E+03   -1.5378051E+05    2.8782519E+06   -1.8342625E+03    2.8917828E+06
   -0.81   400.000   -3.787E+01    2.8827349E+06    4.2496325E+03   -1.6038936E+05    2.8770210E+06   -4.2496644E+03    2.8827349E+06
   -0.80   400.000   -3.833E+01    2.8798521E+06    6.9123349E+03   -1.6488577E+05    2.8785612E+06   -6.9123704E+03    2.8798521E+06
   -0.79   400.000   -3.878E+01    2.8853468E+06    9.8199732E+03   -1.6691284E+05    2.8855997E+06   -9.8200125E+03    2.8853468E+06
   -0.78   400.000   -3.923E+01    2.8998277E+06    1.2871796E+04   -1.6629027E+05    2.9002528E+06   -1.2871839E+04    2.8998277E+06
   -0.77   400.000   -3.968E+01    2.9222640E+06    1.5858852E+04   -1.6299477E+05    2.9234398E+06   -1.5858899E+04    2.9222641E+06
   -0.76   400.000   -4.013E+01    2.9504421E+06    1.8499408E+04   -1.5713998E+05    2.9545856E+06   -1.8499458E+04    2.9504421E+06
   -0.75   400.000   -4.058E+01    2.9817030E+06    2.0514512E+04   -1.4896519E+05    2.9917194E+06   -2.0514565E+04    2.9817030E+06
   -0.74   400.000   -4.102E+01    3.0136770E+06    2.1717973E+04   -1.3884256E+05    3.0319483E+06   -2.1718028E+04    3.0136770E+06
   -0.73   400.000   -4.147E+01    3.0448128E+06    2.2080790E+04   -1.2730374E+05    3.0721934E+06   -2.2080848E+04    3.0448128E+06
   -0.72   400.000   -4.191E+01    3.0746367E+06    2.1735275E+04   -1.1506364E+05    3.1099978E+06   -2.1735336E+04    3.0746368E+06
   -0.71   400.000   -4.235E+01    3.1037445E+06    2.0911970E+04   -1.0299891E+05    3.1441686E+06   -2.0912033E+04    3.1037445E+06
   -0.70   400.000   -4.278E+01    3.1335410E+06    1.9839928E+04   -9.2049634E+04    3.1750283E+06   -1.9839994E+04    3.1335410E+06
   -0.69   400.000   -4.321E+01    3.1657533E+06    1.8662750E+04   -8.3054084E+04    3.2041610E+06   -1.8662819E+04    3.1657533E+06
   -0.68   400.000   -4.364E+01    3.2017915E+06    1.7409861E+04   -7.6569358E+04    3.2337067E+06   -1.7409933E+04    3.2017915E+06
   -0.67   400.000   -4.407E+01    3.2420888E+06    1.6023600E+04   -7.2742551E+04    3.2654183E+06   -1.6023674E+04    3.2420888E+06
   -0.66   400.000   -4.450E+01    3.2855872E+06    1.4411331E+04   -7.1272869E+04    3.2997834E+06   -1.4411407E+04    3.2855872E+06
   -0.65   400.000   -4.492E+01    3.3295520E+06    1.2492942E+04   -7.1468329E+04    3.3355160E+06   -1.2493018E+04    3.3295520E+06
   -0.64   400.000   -4.534E+01    3.3698658E+06    1.0236344E+04   -7.2375822E+04    3.3696239E+06   -1.0236420E+04    3.3698658E+06
   -0.63   400.000   -4.577E+01    3.4018192E+06    7.6849424E+03   -7.2955568E+04    3.3980647E+06   -7.6850195E+03    3.4018192E+06
   -0.62   400.000   -4.619E+01    3.4212129E+06    4.9706897E+03   -7.2272450E+04    3.4167846E+06   -4.9707676E+03    3.4212130E+06
   -0.61   400.000   -4.662E+01    3.4254072E+06    2.2960972E+03   -6.9676806E+04    3.4227943E+06   -2.2961766E+03    3.4254073E+06
   -0.60   400.000   -4.705E+01    3.4139529E+06   -1.1943586E+02   -6.4939873E+04    3.4149535E+06    1.1935397E+02    3.4139529E+06
   -0.59   400.000   -4.748E+01    3.3886185E+06   -2.1081308E+03   -5.8301703E+04    3.3942633E+06    2.1080456E+03    3.3886186E+06
   -0.58   400.000   -4.791E+01    3.3528718E+06   -3.6039927E+03   -5.0402511E+04    3.3636219E+06    3.6039038E+03    3.3528719E+06
   -0.57   400.000   -4.833E+01    3.3110325E+06   -4.6526722E+03   -4.2110691E+04    3.3271143E+06    4.6525793E+03    3.3110326E+06
   -0.56   400.000   -4.876E+01    3.2673368E+06   -5.3801901E+03   -3.4309074E+04    3.2890043E+06    5.3800936E+03    3.2673369E+06
   -0.55   400.000   -4.919E+01    3.2251181E+06   -5.9357949E+03   -2.7716652E+04    3.2526905E+06    5.9356955E+03    3.2251183E+06
   -0.54   400.000   -4.962E+01    3.1862886E+06   -6.4328162E+03   -2.2790333E+04    3.2199371E+06    6.4327148E+03    3.1862888E+06
   -0.53   400.000   -5.005E+01    3.1512810E+06   -6.9125121E+03   -1.9697857E+04    3.1906231E+06    6.9124101E+03    3.1512812E+06
   -0.52   400.000   -5.049E+01    3.1194774E+06   -7.3451083E+03   -1.8328066E+04    3.1630600E+06    7.3450073E+03    3.1194776E+06
   -0.51   400.000   -5.092E+01    3.0899208E+06   -7.6606000E+03   -1.8327657E+04    3.1346981E+06    7.6605019E+03    3.0899209E+06
   -0.50   400.000   -5.136E+01    3.0619234E+06   -7.7842395E+03   -1.9184413E+04    3.1029153E+06    7.7841462E+03    3.0619236E+06
   -0.49   400.000   -5.180E+01    3.0352442E+06   -7.6546504E+03   -2.0364144E+04    3.0656310E+06    7.6545639E+03    3.0352444E+06
   -0.48   400.000   -5.225E+01    3.0097971E+06   -7.2245791E+03   -2.1461493E+04    3.0216587E+06    7.2245011E+03    3.0097972E+06
   -0.47   400.000   -5.271E+01    2.9851701E+06   -6.4630394E+03   -2.2299962E+04    2.9708608E+06    6.4629710E+03    2.9851703E+06
   -0.46   400.000   -5.317E+01    2.9603435E+06   -5.3730629E+03   -2.2940592E+04    2.9141884E+06    5.3730047E+03    2.9603436E+06
   -0.45   400.000   -5.365E+01    2.9338279E+06   -4.0171741E+03   -2.3603958E+04    2.8536047E+06    4.0171256E+03    2.9338280E+06
   -0.44   400.000   -5.413E+01    2.9041680E+06   -2.5282964E+03   -2.4544019E+04    2.7918477E+06    2.5282565E+03    2.9041682E+06
   -0.43   400.000   -5.463E+01    2.8705665E+06   -1.0935654E+03   -2.5928539E+04    2.7320387E+06    1.0935326E+03    2.8705667E+06
   -0.42   400.000   -5.514E+01    2.8333681E+06    7.7769826E+01   -2.7778625E+04    2.6772459E+06   -7.7797337E+01    2.8333682E+06
   -0.41   400.000   -5.567E+01    2.7942273E+06    7.7975728E+02   -2.9990410E+04    2.6301194E+06   -7.7978146E+02    2.7942275E+06
   -0.40   400.000   -5.621E+01    2.7558772E+06    8.2031266E+02   -3.2412588E+04    2.5926277E+06   -8.2033538E+02    2.7558773E+06
   -0.39   400.000   -5.677E+01    2.7215168E+06    3.3299458E+01   -3.4919869E+04    2.5658433E+06   -3.3322390E+01    2.7215170E+06
   -0.38   400.000   -5.734E+01    2.6939649E+06   -1.6862919E+03   -3.7435851E+04    2.5497509E+06    1.6862673E+03    2.6939650E+06
   -0.37   400.000   -5.793E+01    2.6748469E+06   -4.3264329E+03   -3.9908922E+04    2.5431481E+06    4.3264058E+03    2.6748471E+06
   -0.36   400.000   -5.853E+01    2.6641285E+06   -7.7151718E+03   -4.2286385E+04    2.5437673E+06    7.7151413E+03    2.6641286E+06
   -0.35   400.000   -5.915E+01    2.6601886E+06   -1.1531332E+04   -4.4528649E+04    2.5486722E+06    1.1531298E+04    2.6601887E+06
   -0.34   400.000   -5.978E+01    2.6603960E+06   -1.5380438E+04   -4.6662443E+04    2.5548195E+06    1.5380400E+04    2.6603961E+06
   -0.33   400.000   -6.042E+01    2.6619168E+06   -1.8903617E+04   -4.8829335E+04    2.5595614E+06    1.8903575E+04    2.6619169E+06
   -0.32   400.000   -6.107E+01    2.6624157E+06   -2.1863413E+04   -5.1281624E+04    2.5609122E+06    2.1863367E+04    2.6624158E+06
   -0.31   400.000   -6.173E+01    2.6604191E+06   -2.4165430E+04   -5.4316873E+04    2.5575710E+06    2.4165380E+04    2.6604192E+06
   -0.30   400.000   -6.240E+01    2.6553005E+06   -2.5816070E+04   -5.8190588E+04    2.5488284E+06    2.5816017E+04    2.6553006E+06
   -0.29   400.000   -6.307E+01    2.6469947E+06   -2.6854134E+04   -6.3058424E+04    2.5344829E+06    2.6854076E+04    2.6469948E+06
   -0.28   400.000   -6.374E+01    2.6356151E+06   -2.7304396E+04   -6.8963506E+04    2.5147856E+06    2.7304335E+04    2.6356152E+06
   -0.27   400.000   -6.442E+01    2.6211496E+06   -2.7180297E+04   -7.5838698E+04    2.4903608E+06    2.7180233E+04    2.6211497E+06
   -0.26   400.000   -6.510E+01    2.6033682E+06   -2.6525192E+04   -8.3485652E+04    2.4620752E+06    2.6525126E+04    2.6033682E+06
   -0.25   400.000   -6.578E+01    2.5819757E+06   -2.5453605E+04   -9.1530719E+04    2.4309144E+06    2.5453541E+04    2.5819758E+06
   -0.24   400.000   -6.647E+01    2.5569174E+06   -2.4157143E+04   -9.9405341E+04    2.3979567E+06    2.4157081E+04    2.5569175E+06
   -0.23   400.000   -6.717E+01    2.5286596E+06   -2.2870458E+04   -1.0640859E+05    2.3644710E+06    2.2870401E+04    2.5286597E+06
   -0.22   400.000   -6.787E+01    2.4982842E+06   -2.1821894E+04   -1.1186503E+05    2.3320437E+06    2.1821843E+04    2.4982843E+06
   -0.21   400.000   -6.858E+01    2.4673405E+06   -2.1195359E+04   -1.1532074E+05    2.3025817E+06    2.1195317E+04    2.4673407E+06
   -0.20   400.000   -6.929E+01    2.4375189E+06   -2.1110292E+04   -1.1667927E+05    2.2780984E+06    2.1110260E+04    2.4375190E+06
   -0.19   400.000   -7.002E+01    2.4102877E+06   -2.1611423E+04   -1.1620595E+05    2.2603343E+06    2.1611401E+04    2.4102878E+06
   -0.18   400.000   -7.075E+01    2.3866420E+06   -2.2663338E+04   -1.1440762E+05    2.2503752E+06    2.2663325E+04    2.3866421E+06
   -0.17   400.000   -7.149E+01    2.3670536E+06   -2.4154893E+04   -1.1186793E+05    2.2484338E+06    2.4154888E+04    2.3670537E+06
   -0.16   400.000   -7.224E+01    2.3516216E+06   -2.5919383E+04   -1.0913019E+05    2.2538738E+06    2.5919385E+04    2.3516217E+06
   -0.15   400.000   -7.300E+01    2.3403359E+06   -2.7767875E+04   -1.0666612E+05    2.2654355E+06    2.7767881E+04    2.3403360E+06
   -0.14   400.000   -7.376E+01    2.3333296E+06   -2.9525580E+04   -1.0489626E+05    2.2815547E+06    2.9525589E+04    2.3333297E+06
   -0.13   400.000   -7.453E+01    2.3310006E+06   -3.1059615E+04   -1.0419381E+05    2.3006387E+06    3.1059626E+04    2.3310007E+06
   -0.12   400.000   -7.530E+01    2.3339167E+06   -3.2289444E+04   -1.0483057E+05    2.3211976E+06    3.2289455E+04    2.3339168E+06
   -0.11   400.000   -7.608E+01    2.3424982E+06   -3.3177811E+04   -1.0688426E+05    2.3418187E+06    3.3177821E+04    2.3424983E+06
   -0.10   400.000   -7.686E+01    2.3565872E+06   -3.3709302E+04   -1.1017137E+05    2.3610692E+06    3.3709310E+04    2.3565873E+06
   -0.09   400.000   -7.764E+01    2.3751135E+06   -3.3870785E+04   -1.1426490E+05    2.3774736E+06    3.3870792E+04    2.3751136E+06
   -0.08   400.000   -7.844E+01    2.3960764E+06   -3.3646995E+04   -1.1860794E+05    2.3896595E+06    3.3646999E+04    2.3960765E+06
   -0.07   400.000   -7.923E+01    2.4169236E+06   -3.3034544E+04   -1.2267575E+05    2.3966550E+06    3.3034545E+04    2.4169237E+06
   -0.06   400.000   -8.004E+01    2.4352080E+06   -3.2064230E+04   -1.2610734E+05    2.3982099E+06    3.2064229E+04    2.4352081E+06
   -0.05   400.000   -8.085E+01    2.4492514E+06   -3.0814435E+04   -1.2874360E+05    2.3949804E+06    3.0814432E+04    2.4492515E+06
   -0.04   400.000   -8.167E+01    2.4585437E+06   -2.9404632E+04   -1.3056242E+05    2.3884678E+06    2.9404627E+04    2.4585438E+06
   -0.03   400.000   -8.249E+01    2.4637515E+06   -2.7972769E+04   -1.3156013E+05    2.3807152E+06    2.7972761E+04    2.4637516E+06
   -0.02   400.000   -8.332E+01    2.4663880E+06   -2.6649691E+04   -1.3165561E+05    2.3738733E+06    2.6649682E+04    2.4663881E+06
   -0.01   400.000   -8.415E+01    2.4683174E+06   -2.5540199E+04   -1.3067294E+05    2.3697984E+06    2.5540187E+04    2.4683175E+06
    0.00   400.000   -8.499E+01    2.4712769E+06   -2.4710216E+04   -1.2840542E+05    2.3698122E+06    2.4710202E+04    2.4712770E+06
    0.01   400.000   -8.583E+01    2.4765492E+06   -2.4175666E+04   -1.2471444E+05    2.3746569E+06    2.4175651E+04    2.4765493E+06
    0.02   400.000   -8.668E+01    2.4848506E+06   -2.3894664E+04   -1.1960546E+05    2.3845895E+06    2.3894649E+04    2.4848507E+06
    0.03   400.000   -8.754E+01    2.4964251E+06   -2.3772230E+04   -1.1325401E+05    2.3995276E+06    2.3772215E+04    2.4964252E+06
    0.04   400.000   -8.839E+01    2.5112544E+06   -2.3684453E+04   -1.0599310E+05    2.4191763E+06    2.3684439E+04    2.5112545E+06
    0.05   400.000   -8.926E+01    2.5292310E+06   -2.3516199E+04   -9.8285689E+04    2.4430905E+06    2.3516188E+04    2.5292310E+06
    0.06   400.000   -9.013E+01    2.5501567E+06   -2.3195114E+04   -9.0689888E+04    2.4706514E+06    2.3195107E+04    2.5501568E+06
    0.07   400.000   -9.101E+01    2.5735434E+06   -2.2706604E+04   -8.3807127E+04    2.5009708E+06    2.2706603E+04    2.5735435E+06
    0.08   400.000   -9.190E+01    2.5983353E+06   -2.2086667E+04   -7.8202515E+04    2.5327767E+06    2.2086672E+04    2.5983353E+06
    0.09   400.000   -9.280E+01    2.6227475E+06   -2.1399043E+04   -7.4299214E+04    2.5643440E+06    2.1399056E+04    2.6227475E+06
    0.10   400.000   -9.372E+01    2.6443592E+06   -2.0704457E+04   -7.2267278E+04    2.5935108E+06    2.0704477E+04    2.6443593E+06
    0.11   400.000   -9.464E+01    2.6604621E+06   -2.0029411E+04   -7.1945879E+04    2.6177859E+06    2.0029437E+04    2.6604621E+06
    0.12   400.000   -9.558E+01    2.6685450E+06   -1.9346111E+04   -7.2845510E+04    2.6345534E+06    1.9346143E+04    2.6685450E+06
    0.13   400.000   -9.653E+01    2.6667622E+06   -1.8577586E+04   -7.4256690E+04    2.6413938E+06    1.8577622E+04    2.6667622E+06
    0.14   400.000   -9.749E+01    2.6542649E+06   -1.7633071E+04   -7.5440315E+04    2.6365121E+06    1.7633110E+04    2.6542650E+06
    0.15   400.000   -9.845E+01    2.6313294E+06   -1.6460100E+04   -7.5820596E+04    2.6191653E+06    1.6460141E+04    2.6313294E+06
    0.16   400.000   -9.942E+01    2.5992422E+06   -1.5085671E+04   -7.5091335E+04    2.5899040E+06    1.5085713E+04    2.5992422E+06
    0.17   400.000   -1.004E+02    2.5599561E+06   -1.3621374E+04   -7.3199577E+04    2.5504828E+06    1.3621417E+04    2.5599561E+06
    0.18   400.000   -1.014E+02    2.5156027E+06   -1.2225683E+04   -7.0249753E+04    2.5034642E+06    1.2225727E+04    2.5156027E+06
    0.19   400.000   -1.023E+02    2.4680205E+06   -1.1040301E+04   -6.6410564E+04    2.4516913E+06    1.1040345E+04    2.4680205E+06
    0.20   400.000   -1.033E+02    2.4184581E+06   -1.0132959E+04   -6.1875670E+04    2.3978167E+06    1.0133002E+04    2.4184582E+06
    0.21   400.000   -1.043E+02    2.3675277E+06   -9.4757638E+03   -5.6863902E+04    2.3439731E+06    9.4758060E+03    2.3675277E+06
    0.22   400.000   -1.053E+02    2.3153663E+06   -8.9675041E+03   -5.1610494E+04    2.2915699E+06    8.9675448E+03    2.3153663E+06
    0.23   400.000   -1.062E+02    2.2618855E+06   -8.4845217E+03   -4.6326125E+04    2.2411789E+06    8.4845602E+03    2.2618855E+06
    0.24   400.000   -1.072E+02    2.2069837E+06   -7.9326564E+03   -4.1151069E+04    2.1925113E+06    7.9326921E+03    2.2069838E+06
    0.25   400.000   -1.081E+02    2.1506585E+06   -7.2762284E+03   -3.6150039E+04    2.1445323E+06    7.2762606E+03    2.1506586E+06
    0.26   400.000   -1.090E+02    2.0930308E+06   -6.5345193E+03   -3.1359842E+04    2.0957567E+06    6.5345477E+03    2.0930309E+06
    0.27   400.000   -1.099E+02    2.0343349E+06   -5.7547111E+03   -2.6852468E+04    2.0447035E+06    5.7547353E+03    2.0343350E+06
    0.28   400.000   -1.108E+02    1.9749145E+06   -4.9831873E+03   -2.2760859E+04    1.9903811E+06    4.9832074E+03    1.9749146E+06
    0.29   400.000   -1.116E+02    1.9152269E+06   -4.2549402E+03   -1.9246165E+04    1.9326215E+06    4.2549566E+03    1.9152270E+06
    0.30   400.000   -1.125E+02    1.8558296E+06   -3.6038202E+03   -1.6430952E+04    1.8721259E+06    3.6038335E+03    1.8558297E+06
    0.31   400.000   -1.133E+02    1.7973328E+06   -3.0786005E+03   -1.4343819E+04    1.8102233E+06    3.0786116E+03    1.7973329E+06
    0.32   400.000   -1.141E+02    1.7403296E+06   -2.7467132E+03   -1.2907719E+04    1.7484740E+06    2.7467229E+03    1.7403297E+06
    0.33   400.000   -1.149E+02    1.6853408E+06   -2.6798559E+03   -1.1974579E+04    1.6883038E+06    2.6798647E+03    1.6853408E+06
    0.34   400.000   -1.156E+02    1.6327995E+06   -2.9301752E+03   -1.1384014E+04    1.6307890E+06    2.9301832E+03    1.6327996E+06
    0.35   400.000   -1.163E+02    1.5830742E+06   -3.5105288E+03   -1.1016154E+04    1.5766125E+06    3.5105360E+03    1.5830743E+06
    0.36   400.000   -1.171E+02    1.5364950E+06   -4.3873483E+03   -1.0817903E+04    1.5261332E+06    4.3873540E+03    1.5364951E+06
    0.37   400.000   -1.178E+02    1.4933566E+06   -5.4869147E+03   -1.0797379E+04    1.4794965E+06    5.4869185E+03    1.4933566E+06
    0.38   400.000   -1.184E+02    1.4538989E+06   -6.7103681E+03   -1.0992240E+04    1.4367371E+06    6.7103697E+03    1.4538989E+06
    0.39   400.000   -1.191E+02    1.4182952E+06   -7.9507617E+03   -1.1423763E+04    1.3978528E+06    7.9507608E+03    1.4182953E+06
    0.40   400.000   -1.197E+02    1.3866722E+06   -9.1071144E+03   -1.2054693E+04    1.3628510E+06    9.1071111E+03    1.3866723E+06
    0.41   400.000   -1.203E+02    1.3591518E+06   -1.0094471E+04   -1.2772766E+04    1.3317766E+06    1.0094466E+04    1.3591519E+06
    0.42   400.000   -1.209E+02    1.3358757E+06   -1.0851986E+04   -1.3415469E+04    1.3047193E+06    1.0851980E+04    1.3358757E+06
    0.43   400.000   -1.215E+02    1.3169763E+06   -1.1350246E+04   -1.3832551E+04    1.2817931E+06    1.1350239E+04    1.3169764E+06
    0.44   400.000   -1.221E+02    1.3024975E+06   -1.1595710E+04   -1.3960499E+04    1.2630791E+06    1.1595703E+04    1.3024976E+06
    0.45   400.000   -1.226E+02    1.2923111E+06   -1.1628304E+04   -1.3872503E+04    1.2485605E+06    1.1628298E+04    1.2923112E+06
    0.46   400.000   -1.232E+02    1.2860926E+06   -1.1510534E+04   -1.3776322E+04    1.2380966E+06    1.1510531E+04    1.2860926E+06
    0.47   400.000   -1.237E+02    1.2833921E+06   -1.1311521E+04   -1.3956374E+04    1.2314810E+06    1.1311520E+04    1.2833921E+06
    0.48   400.000   -1.242E+02    1.2837843E+06   -1.1092701E+04   -1.4682215E+04    1.2285818E+06    1.1092702E+04    1.2837843E+06
    0.49   400.000   -1.247E+02    1.2870288E+06   -1.0900545E+04   -1.6120478E+04    1.2295011E+06    1.0900548E+04    1.2870288E+06
    0.50   400.000   -1.253E+02    1.2931572E+06   -1.0766267E+04   -1.8283273E+04    1.2346513E+06    1.0766271E+04    1.2931573E+06
    0.51   400.000   -1.258E+02    1.3024327E+06   -1.0707088E+04   -2.1024936E+04    1.2446665E+06    1.0707095E+04    1.3024328E+06
    0.52   400.000   -1.263E+02    1.3151968E+06   -1.0722847E+04   -2.4075828E+04    1.2601561E+06    1.0722854E+04    1.3151968E+06
    0.53   400.000   -1.268E+02    1.3316840E+06   -1.0787801E+04   -2.7093704E+04    1.2814131E+06    1.0787808E+04    1.3316841E+06
    0.54   400.000   -1.274E+02    1.3518980E+06   -1.0846643E+04   -2.9720798E+04    1.3082275E+06    1.0846651E+04    1.3518980E+06
    0.55   400.000   -1.279E+02    1.3755866E+06   -1.0825917E+04   -3.1641617E+04    1.3398847E+06    1.0825924E+04    1.3755867E+06
    0.56   400.000   -1.284E+02    1.4022806E+06   -1.0661731E+04   -3.2633082E+04    1.3753169E+06    1.0661737E+04    1.4022806E+06
    0.57   400.000   -1.290E+02    1.4313303E+06   -1.0329897E+04   -3.2595155E+04    1.4132990E+06    1.0329904E+04    1.4313304E+06
    0.58   400.000   -1.295E+02    1.4619097E+06   -9.8600251E+03   -3.1559583E+04    1.4525956E+06    9.8600319E+03    1.4619097E+06
    0.59   400.000   -1.301E+02    1.4930020E+06   -9.3248852E+03   -2.9689551E+04    1.4920146E+06    9.3248924E+03    1.4930020E+06
    0.60   400.000   -1.306E+02    1.5234049E+06   -8.8108495E+03   -2.7283491E+04    1.5303762E+06    8.8108574E+03    1.5234049E+06
    0.61   400.000   -1.312E+02    1.5517805E+06   -8.3835492E+03   -2.4776871E+04    1.5664404E+06    8.3835580E+03    1.5517805E+06
    0.62   400.000   -1.317E+02    1.5767615E+06   -8.0630773E+03   -2.2716984E+04    1.5988570E+06    8.0630869E+03    1.5767615E+06
    0.63   400.000   -1.323E+02    1.5971100E+06   -7.8175060E+03   -2.1690729E+04    1.6261961E+06    7.8175159E+03    1.5971100E+06
    0.64   400.000   -1.329E+02    1.6119011E+06   -7.5748382E+03   -2.2212545E+04    1.6470861E+06    7.5748476E+03    1.6119011E+06
    0.65   400.000   -1.334E+02    1.6206753E+06   -7.2462272E+03   -2.4606066E+04    1.6604360E+06    7.2462351E+03    1.6206753E+06
    0.66   400.000   -1.340E+02    1.6235035E+06   -6.7517829E+03   -2.8920903E+04    1.6656832E+06    6.7517884E+03    1.6235035E+06
    0.67   400.000   -1.346E+02    1.6209537E+06   -6.0429797E+03   -3.4915342E+04    1.6629986E+06    6.0429818E+03    1.6209537E+06
    0.68   400.000   -1.352E+02    1.6140059E+06   -5.1170942E+03   -4.2113523E+04    1.6533923E+06    5.1170923E+03    1.6140059E+06
    0.69   400.000   -1.357E+02    1.6039727E+06   -4.0186641E+03   -4.9916375E+04    1.6386747E+06    4.0186581E+03    1.6039727E+06
    0.70   400.000   -1.363E+02    1.5924298E+06   -2.8259937E+03   -5.7722083E+04    1.6212582E+06    2.8259836E+03    1.5924298E+06
    0.71   400.000   -1.369E+02    1.5811214E+06   -1.6289619E+03   -6.5013756E+04    1.6038362E+06    1.6289482E+03    1.5811214E+06
    0.72   400.000   -1.375E+02    1.5718157E+06   -5.1064923E+02   -7.1400754E+04    1.5890228E+06    5.1063247E+02    1.5718157E+06
    0.73   400.000   -1.382E+02    1.5661260E+06    4.5819831E+02   -7.6630071E+04    1.5790479E+06   -4.5821732E+02    1.5661260E+06
    0.74   400.000   -1.388E+02    1.5653311E+06    1.2137503E+03   -8.0590161E+04    1.5755499E+06   -1.2137707E+03    1.5653311E+06
    0.75   400.000   -1.394E+02    1.5702116E+06    1.6926444E+03   -8.3313649E+04    1.5794526E+06   -1.6926652E+03    1.5702116E+06
    0.76   400.000   -1.401E+02    1.5809053E+06    1.8335549E+03   -8.4967942E+04    1.5908833E+06   -1.8335755E+03    1.5809053E+06
    0.77   400.000   -1.408E+02    1.5968057E+06    1.5895501E+03   -8.5819458E+04    1.6091111E+06   -1.5895697E+03    1.5968057E+06
    0.78   400.000   -1.415E+02    1.6165579E+06    9.4851339E+02   -8.6169668E+04    1.6325358E+06   -9.4853151E+02    1.6165579E+06
    0.79   400.000   -1.422E+02    1.6381998E+06   -4.4633576E+01   -8.6280482E+04    1.6587946E+06    4.4617100E+01    1.6381999E+06
    0.80   400.000   -1.430E+02    1.6594386E+06   -1.2735378E+03   -8.6319668E+04    1.6850373E+06    1.2735228E+03    1.6594386E+06
    0.81   400.000   -1.438E+02    1.6779851E+06   -2.5553637E+03   -8.6353335E+04    1.7083417E+06    2.5553500E+03    1.6779852E+06
    0.82   400.000   -1.446E+02    1.6918456E+06   -3.6727814E+03   -8.6389911E+04    1.7261594E+06    3.6727686E+03    1.6918457E+06
    0.83   400.000   -1.454E+02    1.6995066E+06   -4.4295665E+03   -8.6449068E+04    1.7366490E+06    4.4295541E+03    1.6995067E+06
    0.84   400.000   -1.463E+02    1.7000186E+06   -4.7120581E+03   -8.6610595E+04    1.7388171E+06    4.7120459E+03    1.7000187E+06
    0.85   400.000   -1.472E+02    1.6930276E+06   -4.5297386E+03   -8.7009925E+04    1.7324832E+06    4.5297267E+03    1.6930277E+06
    0.86   400.000   -1.481E+02    1.6787872E+06   -4.0129794E+03   -8.7784735E+04    1.7181563E+06    4.0129681E+03    1.6787873E+06
    0.87   400.000   -1.491E+02    1.6581350E+06   -3.3658223E+03   -8.9011422E+04    1.6968966E+06    3.3658120E+03    1.6581351E+06
    0.88   400.000   -1.501E+02    1.6323788E+06   -2.7959473E+03   -9.0671560E+04    1.6701709E+06    2.7959386E+03    1.6323789E+06
    0.89   400.000   -1.511E+02    1.6030623E+06   -2.4555683E+03   -9.2657088E+04    1.6396676E+06    2.4555616E+03    1.6030623E+06
    0.90   400.000   -1.522E+02    1.5716553E+06   -2.4167603E+03   -9.4792079E+04    1.6070544E+06    2.4167562E+03    1.5716554E+06
    0.91   400.000   -1.533E+02    1.5392843E+06   -2.6813405E+03   -9.6848586E+04    1.5737314E+06    2.6813391E+03    1.5392844E+06
    0.92   400.000   -1.544E+02    1.5066190E+06   -3.2074383E+03   -9.8558906E+04    1.5406691E+06    3.2074397E+03    1.5066191E+06
    0.93   400.000   -1.556E+02    1.4739598E+06   -3.9333178E+03   -9.9643337E+04    1.5083958E+06    3.9333221E+03    1.4739599E+06
    0.94   400.000   -1.569E+02    1.4414625E+06   -4.7899675E+03   -9.9860122E+04    1.4771201E+06    4.7899749E+03    1.4414626E+06
    0.95   400.000   -1.581E+02    1.4093749E+06   -5.7058779E+03   -9.9058102E+04    1.4469124E+06    5.7058880E+03    1.4093750E+06
    0.96   400.000   -1.594E+02    1.3781684E+06   -6.6114348E+03   -9.7204466E+04    1.4178580E+06    6.6114474E+03    1.3781685E+06
    0.97   400.000   -1.608E+02    1.3485167E+06   -7.4460968E+03   -9.4378674E+04    1.3901395E+06    7.4461115E+03    1.3485167E+06
    0.98   400.000   -1.621E+02    1.3211569E+06   -8.1658804E+03   -9.0746845E+04    1.3640479E+06    8.1658964E+03    1.3211570E+06
    0.99   400.000   -1.635E+02    1.2967214E+06   -8.7477950E+03   -8.6534691E+04    1.3399430E+06    8.7478114E+03    1.2967215E+06
    1.00   400.000   -1.648E+02    1.2756187E+06   -9.1904628E+03   -8.2003040E+04    1.3181749E+06    9.1904786E+03    1.2756188E+06
    1.01   400.000   -1.662E+02    1.2579917E+06   -9.5116892E+03   -7.7418017E+04    1.2989738E+06    9.5117035E+03    1.2579917E+06
    1.02   400.000   -1.675E+02    1.2437312E+06   -9.7439883E+03   -7.3011300E+04    1.2823277E+06    9.7440000E+03    1.2437312E+06
    1.03   400.000   -1.688E+02    1.2325101E+06   -9.9300436E+03   -6.8939242E+04    1.2679019E+06    9.9300522E+03    1.2325102E+06
    1.04   400.000   -1.701E+02    1.2238347E+06   -1.0120214E+04   -6.5258000E+04    1.2550658E+06    1.0120219E+04    1.2238347E+06
    1.05   400.000   -1.713E+02    1.2171417E+06   -1.0370907E+04   -6.1926417E+04    1.2430665E+06    1.0370908E+04    1.2171418E+06
    1.06   400.000   -1.725E+02    1.2119580E+06   -1.0738914E+04   -5.8835451E+04    1.2313126E+06    1.0738911E+04    1.2119581E+06
    1.07   400.000   -1.737E+02    1.2080844E+06   -1.1268308E+04   -5.5854923E+04    1.2196551E+06    1.1268302E+04    1.2080845E+06
    1.08   400.000   -1.748E+02    1.2057167E+06   -1.1973058E+04   -5.2888463E+04    1.2085296E+06    1.1973049E+04    1.2057168E+06
    1.09   400.000   -1.759E+02    1.2054286E+06   -1.2823389E+04   -4.9926463E+04    1.1988836E+06    1.2823377E+04    1.2054286E+06
    1.10   400.000   -1.769E+02    1.2080127E+06   -1.3742718E+04   -4.7078103E+04    1.1919194E+06    1.3742705E+04    1.2080127E+06
    1.11   400.000   -1.779E+02    1.2142473E+06   -1.4617151E+04   -4.4557410E+04    1.1887608E+06    1.4617135E+04    1.2142474E+06
    1.12   400.000   -1.788E+02    1.2246778E+06   -1.5315504E+04   -4.2612949E+04    1.1901767E+06    1.5315487E+04    1.2246778E+06
    1.13   400.000   -1.797E+02    1.2394723E+06   -1.5715760E+04   -4.1427310E+04    1.1964488E+06    1.5715742E+04    1.2394724E+06
    1.14   400.000   -1.806E+02    1.2583717E+06   -1.5732752E+04   -4.1044199E+04    1.2074052E+06    1.5732733E+04    1.2583717E+06
    1.15   400.000   -1.815E+02    1.2807229E+06   -1.5341168E+04   -4.1374401E+04    1.2225677E+06    1.5341149E+04    1.2807229E+06
    1.16   400.000   -1.823E+02    1.3055828E+06   -1.4587107E+04   -4.2282909E+04    1.2413252E+06    1.4587088E+04    1.3055828E+06
    1.17   400.000   -1.832E+02    1.3318712E+06   -1.3581194E+04   -4.3702750E+04    1.2630562E+06    1.3581176E+04    1.3318712E+06
    1.18   400.000   -1.840E+02    1.3585420E+06   -1.2469678E+04   -4.5701131E+04    1.2871708E+06    1.2469660E+04    1.3585420E+06
    1.19   400.000   -1.848E+02    1.3847274E+06   -1.1389178E+04   -4.8455018E+04    1.3130916E+06    1.1389161E+04    1.3847274E+06
    1.20   400.000   -1.856E+02    1.4098111E+06   -1.0421926E+04   -5.2149996E+04    1.3402111E+06    1.0421910E+04    1.4098111E+06
    1.21   400.000   -1.864E+02    1.4334100E+06   -9.5722996E+03   -5.6857480E+04    1.3678559E+06    9.5722850E+03    1.4334100E+06
    1.22   400.000   -1.871E+02    1.4552751E+06   -8.7764401E+03   -6.2449340E+04    1.3952591E+06    8.7764271E+03    1.4552751E+06
    1.23   400.000   -1.879E+02    1.4751602E+06   -7.9390537E+03   -6.8583006E+04    1.4215296E+06    7.9390426E+03    1.4751602E+06
    1.24   400.000   -1.887E+02    1.4927323E+06   -6.9777442E+03   -7.4754717E+04    1.4456261E+06    6.9777355E+03    1.4927323E+06
    1.25   400.000   -1.894E+02    1.5075873E+06   -5.8549504E+03   -8.0391523E+04    1.4663826E+06    5.8549446E+03    1.5075873E+06
    1.26   400.000   -1.901E+02    1.5193969E+06   -4.5887435E+03   -8.4943475E+04    1.4826503E+06    4.5887410E+03    1.5193969E+06
    1.27   400.000   -1.909E+02    1.5281432E+06   -3.2457684E+03   -8.7947371E+04    1.4935779E+06    3.2457696E+03    1.5281432E+06
    1.28   400.000   -1.916E+02    1.5343452E+06   -1.9246359E+03   -8.9056196E+04    1.4989563E+06    1.9246408E+03    1.5343452E+06
    1.29   400.000   -1.924E+02    1.5391646E+06   -7.3672424E+02   -8.8051205E+04    1.4994797E+06    7.3673270E+02    1.5391645E+06
    1.30   400.000   -1.931E+02    1.5443231E+06    2.1101453E+02   -8.4861027E+04    1.4967868E+06   -2.1100290E+02    1.5443231E+06
    1.31   400.000   -1.938E+02    1.5518500E+06    8.2751187E+02   -7.9596210E+04    1.4932525E+06   -8.2749763E+02    1.5518500E+06
    1.32   400.000   -1.946E+02    1.5637498E+06    1.0416045E+03   -7.2578799E+04    1.4916107E+06   -1.0415882E+03    1.5637498E+06
    1.33   400.000   -1.953E+02    1.5817040E+06    8.0236914E+02   -6.4329971E+04    1.4945387E+06   -8.0235127E+02    1.5817039E+06
    1.34   400.000   -1.961E+02    1.6068772E+06    8.4412691E+01   -5.5493200E+04    1.5042994E+06   -8.4393430E+01    1.6068771E+06
    1.35   400.000   -1.969E+02    1.6398405E+06   -1.0957402E+03   -4.6707830E+04    1.5224932E+06    1.0957610E+03    1.6398404E+06
    1.36   400.000   -1.976E+02    1.6805817E+06   -2.6569472E+03   -3.8477878E+04    1.5499433E+06    2.6569699E+03    1.6805817E+06
    1.37   400.000   -1.984E+02    1.7285812E+06   -4.4407133E+03   -3.1081785E+04    1.5867248E+06    4.4407384E+03    1.7285812E+06
    1.38   400.000   -1.992E+02    1.7829503E+06   -6.2258858E+03   -2.4548085E+04    1.6323280E+06    6.2259141E+03    1.7829502E+06
    1.39   400.000   -2.000E+02    1.8426319E+06   -7.7745828E+03   -1.8700535E+04    1.6859088E+06    7.7746149E+03    1.8426319E+06
    1.40   400.000   -2.008E+02    1.9066160E+06   -8.8922409E+03   -1.3260894E+04    1.7465359E+06    8.8922772E+03    1.9066160E+06
    1.41   400.000   -2.015E+02    1.9740743E+06   -9.4728633E+03   -7.9818459E+03    1.8133267E+06    9.4729043E+03    1.9740742E+06
    1.42   400.000   -2.023E+02    2.0443380E+06   -9.5093867E+03   -2.7680888E+03    1.8854007E+06    9.5094327E+03    2.0443379E+06
    1.43   400.000   -2.031E+02    2.1167390E+06   -9.0721293E+03    2.2556340E+03    1.9616843E+06    9.0721802E+03    2.1167390E+06
    1.44   400.000   -2.040E+02    2.1904443E+06   -8.2752486E+03    6.7497318E+03    2.0407145E+06    8.2753039E+03    2.1904442E+06
    1.45   400.000   -2.048E+02    2.2644364E+06   -7.2486903E+03    1.0232664E+04    2.1206247E+06    7.2487492E+03    2.2644363E+06
    1.46   400.000   -2.056E+02    2.3376936E+06   -6.1188317E+03    1.2203763E+04    2.1993942E+06    6.1188932E+03    2.3376935E+06
    1.47   400.000   -2.064E+02    2.4094755E+06   -4.9929384E+03    1.2295865E+04    2.2752882E+06    4.9930011E+03    2.4094755E+06
    1.48   400.000   -2.073E+02    2.4795455E+06   -3.9468787E+03    1.0427948E+04    2.3473085E+06    3.9469413E+03    2.4795455E+06
    1.49   400.000   -2.081E+02    2.5482226E+06   -3.0212929E+03    6.9104622E+03    2.4155031E+06    3.0213541E+03    2.5482225E+06
    1.50   400.000   -2.090E+02    2.6162839E+06   -2.2279417E+03    2.4530147E+03    2.4810793E+06    2.2280008E+03    2.6162838E+06
    1.51   400.000   -2.098E+02    2.6848196E+06   -1.5592862E+03   -1.9506290E+03    2.5463394E+06    1.5593427E+03    2.6848195E+06
    1.52   400.000   -2.107E+02    2.7551098E+06   -9.9096598E+02   -5.2466278E+03    2.6144410E+06    9.9101983E+02    2.7551097E+06
    1.53   400.000   -2.115E+02    2.8285224E+06   -4.7195103E+02   -6.6106511E+03    2.6889583E+06    4.7200247E+02    2.8285223E+06
    1.54   400.000   -2.124E+02    2.9064037E+06    9.2848162E+01   -5.7367928E+03    2.7732500E+06   -9.2798804E+01    2.9064036E+06
    1.55   400.000   -2.133E+02    2.9899561E+06    8.5214395E+02   -3.0325231E+03    2.8697287E+06   -8.5209641E+02    2.9899560E+06
    1.56   400.000   -2.142E+02    3.0801207E+06    1.9897753E+03    3.8868656E+02    2.9792033E+06   -1.9897296E+03    3.0801206E+06
    1.57   400.000   -2.151E+02    3.1774687E+06    3.6673013E+03    2.9830803E+03    3.1004802E+06   -3.6672575E+03    3.1774686E+06
    1.58   400.000   -2.159E+02    3.2820959E+06    5.9411289E+03    3.2705369E+03    3.2303623E+06   -5.9410873E+03    3.2820958E+06
    1.59   400.000   -2.168E+02    3.3935209E+06    8.6921124E+03    3.6557772E+02    3.3641042E+06   -8.6920734E+03    3.3935209E+06
    1.60   400.000   -2.177E+02    3.5106150E+06    1.1610447E+04   -5.6843430E+03    3.4962782E+06   -1.1610411E+04    3.5106149E+06
    1.61   400.000   -2.185E+02    3.6315939E+06    1.4256878E+04   -1.3904378E+04    3.6218723E+06   -1.4256845E+04    3.6315938E+06
    1.62   400.000   -2.194E+02    3.7540990E+06    1.6183687E+04   -2.2734113E+04    3.7373048E+06   -1.6183658E+04    3.7540989E+06
    1.63   400.000   -2.202E+02    3.8753665E+06    1.7067113E+04   -3.0552806E+04    3.8410038E+06   -1.7067088E+04    3.8753664E+06
    1.64   400.000   -2.210E+02    3.9924573E+06    1.6796980E+04   -3.6172469E+04    3.9333353E+06   -1.6796960E+04    3.9924572E+06
    1.65   400.000   -2.219E+02    4.1024986E+06    1.5494566E+04   -3.9118747E+04    4.0159591E+06   -1.5494551E+04    4.1024985E+06
    1.66   400.000   -2.227E+02    4.2029028E+06    1.3467593E+04   -3.9624888E+04    4.0909705E+06   -1.3467584E+04    4.2029027E+06
    1.67   400.000   -2.235E+02    4.2915886E+06    1.1132722E+04   -3.8388315E+04    4.1602753E+06   -1.1132718E+04    4.2915885E+06
    1.68   400.000   -2.243E+02    4.3672681E+06    8.9301417E+03   -3.6230962E+04    4.2254794E+06   -8.9301428E+03    4.3672680E+06
    1.69   400.000   -2.251E+02    4.4298191E+06    7.2391512E+03   -3.3826203E+04    4.2882627E+06   -7.2391567E+03    4.4298191E+06
    1.70   400.000   -2.259E+02    4.4806478E+06    6.3007001E+03   -3.1594364E+04    4.3509354E+06   -6.3007092E+03    4.4806478E+06
    1.71   400.000   -2.267E+02    4.5228442E+06    6.1639456E+03   -2.9754761E+04    4.4167810E+06   -6.1639581E+03    4.5228442E+06
    1.72   400.000   -2.275E+02    4.5609331E+06    6.6808872E+03   -2.8427755E+04    4.4898832E+06   -6.6809028E+03    4.5609330E+06
    1.73   400.000   -2.282E+02    4.6001484E+06    7.5607175E+03   -2.7672796E+04    4.5743727E+06   -7.5607364E+03    4.6001484E+06
    1.74   400.000   -2.290E+02    4.6453609E+06    8.4674338E+03   -2.7425324E+04    4.6732837E+06   -8.4674565E+03    4.6453609E+06
    1.75   400.000   -2.298E+02    4.6999815E+06    9.1197966E+03   -2.7387363E+04    4.7873832E+06   -9.1198236E+03    4.6999815E+06
    1.76   400.000   -2.305E+02    4.7652471E+06    9.3511581E+03   -2.6965559E+04    4.9143685E+06   -9.3511894E+03    4.7652471E+06
    1.77   400.000   -2.313E+02    4.8401861E+06    9.1120205E+03   -2.5321330E+04    5.0487532E+06   -9.1120557E+03    4.8401862E+06
    1.78   400.000   -2.321E+02    4.9222905E+06    8.4336068E+03   -2.1536168E+04    5.1825925E+06   -8.4336450E+03    4.9222906E+06
    1.79   400.000   -2.328E+02    5.0085908E+06    7.3892055E+03   -1.4850826E+04    5.3069548E+06   -7.3892450E+03    5.0085909E+06
    1.80   400.000   -2.336E+02    5.0966247E+06    6.0781966E+03   -4.9283093E+03    5.4137832E+06   -6.0782358E+03    5.0966248E+06
    1.81   400.000   -2.344E+02    5.1848451E+06    4.6299749E+03    7.9128252E+03    5.4975978E+06   -4.6300120E+03    5.1848452E+06
    1.82   400.000   -2.351E+02    5.2723232E+06    3.2081522E+03    2.2576913E+04    5.5564636E+06   -3.2081861E+03    5.2723233E+06
    1.83   400.000   -2.359E+02    5.3579939E+06    1.9997298E+03    3.7284961E+04    5.5918639E+06   -1.9997599E+03    5.3579940E+06
    1.84   400.000   -2.367E+02    5.4399333E+06    1.1871628E+03    4.9935152E+04    5.6075597E+06   -1.1871895E+03    5.4399334E+06
    1.85   400.000   -2.374E+02    5.5151086E+06    9.0869773E+02    5.8652287E+04    5.6080054E+06   -9.0872198E+02    5.5151087E+06
    1.86   400.000   -2.382E+02    5.5797686E+06    1.2138107E+03    6.2330861E+04    5.5971023E+06   -1.2138338E+03    5.5797687E+06
    1.87   400.000   -2.390E+02    5.6303076E+06    2.0252454E+03    6.0961307E+04    5.5778368E+06   -2.0252687E+03    5.6303077E+06
    1.88   400.000   -2.397E+02    5.6642518E+06    3.1276238E+03    5.5622181E+04    5.5528313E+06   -3.1276478E+03    5.6642518E+06
    1.89   400.000   -2.405E+02    5.6810168E+06    4.2005443E+03    4.8157545E+04    5.5253520E+06   -4.2005689E+03    5.6810169E+06
    1.90   400.000   -2.412E+02    5.6822441E+06    4.8918879E+03    4.0667129E+04    5.5001101E+06   -4.8919122E+03    5.6822442E+06
    1.91   400.000   -2.420E+02    5.6716928E+06    4.9006818E+03    3.4978652E+04    5.4833115E+06   -4.9007044E+03    5.6716928E+06
    1.92   400.000   -2.427E+02    5.6547748E+06    4.0365090E+03    3.2246378E+04    5.4817854E+06   -4.0365280E+03    5.6547748E+06
    1.93   400.000   -2.434E+02    5.6378474E+06    2.2488929E+03    3.2757522E+04    5.5014739E+06   -2.2489067E+03    5.6378474E+06
    1.94   400.000   -2.441E+02    5.6273773E+06   -3.5367836E+02    3.5966567E+04    5.5458885E+06    3.5367120E+02    5.6273773E+06
    1.95   400.000   -2.449E+02    5.6291193E+06   -3.4814299E+03    4.0735085E+04    5.6151616E+06    3.4814303E+03    5.6291193E+06
    1.96   400.000   -2.455E+02    5.6474674E+06   -6.6592117E+03    4.5718853E+04    5.7060612E+06    6.6592201E+03    5.6474674E+06
    1.97   400.000   -2.462E+02    5.6850817E+06   -9.2869992E+03    4.9800109E+04    5.8129300E+06    9.2870153E+03    5.6850817E+06
    1.98   400.000   -2.469E+02    5.7427868E+06   -1.0789841E+04    5.2432236E+04    5.9291478E+06    1.0789864E+04    5.7427868E+06
    1.99   400.000   -2.476E+02    5.8196592E+06   -1.0820607E+04    5.3788403E+04    6.0485746E+06    1.0820635E+04    5.8196593E+06
    2.00   400.000   -2.483E+02    5.9132110E+06   -9.4230604E+03    5.4682756E+04    6.1665500E+06    9.4230920E+03    5.9132110E+06
    2.01   400.000   -2.489E+02    6.0195940E+06   -7.0593851E+03    5.6308545E+04    6.2802686E+06    7.0594176E+03    6.0195941E+06
    2.02   400.000   -2.496E+02    6.1338111E+06   -4.4659401E+03    5.9873851E+04    6.3885892E+06    4.4659712E+03    6.1338112E+06
    2.03   400.000   -2.503E+02    6.2499913E+06   -2.3905064E+03    6.6226145E+04    6.4914665E+06    2.3905338E+03    6.2499914E+06
    2.04   400.000   -2.509E+02    6.3618245E+06   -1.3292027E+03    7.5560176E+04    6.5892240E+06    1.3292248E+03    6.3618246E+06
    2.05   400.000   -2.516E+02    6.4631565E+06   -1.3811278E+03    8.7287245E+04    6.6818547E+06    1.3811438E+03    6.4631566E+06
    2.06   400.000   -2.522E+02    6.5486144E+06   -2.2731192E+03    1.0009537E+05    6.7685066E+06    2.2731290E+03    6.5486145E+06
    2.07   400.000   -2.528E+02    6.6140954E+06   -3.5173597E+03    1.1216819E+05    6.8473129E+06    3.5173643E+03    6.6140955E+06
    2.08   400.000   -2.535E+02    6.6570556E+06   -4.6080192E+03    1.2149243E+05    6.9156672E+06    4.6080204E+03    6.6570557E+06
    2.09   400.000   -2.541E+02    6.6766417E+06   -5.1702742E+03    1.2618670E+05    6.9708398E+06    5.1702742E+03    6.6766418E+06
    2.10   400.000   -2.548E+02    6.6737089E+06   -5.0255753E+03    1.2481066E+05    7.0106094E+06    5.0255763E+03    6.6737089E+06
    2.11   400.000   -2.554E+02    6.6506826E+06   -4.1834026E+03    1.1662744E+05    7.0335657E+06    4.1834066E+03    6.6506827E+06
    2.12   400.000   -2.560E+02    6.6111786E+06   -2.7879511E+03    1.0177978E+05    7.0389803E+06    2.7879594E+03    6.6111787E+06
    2.13   400.000   -2.567E+02    6.5593617E+06   -1.0509131E+03    8.1319920E+04    7.0264361E+06    1.0509259E+03    6.5593618E+06
    2.14   400.000   -2.573E+02    6.4991701E+06    7.9955079E+02    5.7045032E+04    6.9955210E+06   -7.9953390E+02    6.4991701E+06
    2.15   400.000   -2.579E+02    6.4336430E+06    2.5385013E+03    3.1149651E+04    6.9457987E+06   -2.5384816E+03    6.4336430E+06
    2.16   400.000   -2.585E+02    6.3645847E+06    3.9475854E+03    5.7822945E+03    6.8770855E+06   -3.9475644E+03    6.3645847E+06
    2.17   400.000   -2.591E+02    6.2926410E+06    4.8340488E+03   -1.7364300E+04    6.7898656E+06   -4.8340277E+03    6.2926410E+06
    2.18   400.000   -2.597E+02    6.2176625E+06    5.0776254E+03   -3.7309554E+04    6.6855599E+06   -5.0776050E+03    6.2176625E+06
    2.19   400.000   -2.603E+02    6.1391172E+06    4.6799935E+03   -5.3816593E+04    6.5664020E+06   -4.6799737E+03    6.1391171E+06
    2.20   400.000   -2.609E+02    6.0563863E+06    3.7770736E+03   -6.7201110E+04    6.4349034E+06   -3.7770536E+03    6.0563863E+06
    2.21   400.000   -2.615E+02    5.9689610E+06    2.5970983E+03   -7.8006385E+04    6.2932072E+06   -2.5970768E+03    5.9689610E+06
    2.22   400.000   -2.620E+02    5.8766801E+06    1.3825215E+03   -8.6696832E+04    6.1427895E+06   -1.3824975E+03    5.8766801E+06
    2.23   400.000   -2.626E+02    5.7800981E+06    3.1164529E+02   -9.3508977E+04    5.9848196E+06   -3.1161769E+02    5.7800980E+06
    2.24   400.000   -2.631E+02    5.6808995E+06   -5.4893290E+02   -9.8497306E+04    5.8210907E+06    5.4896455E+02    5.6808994E+06
    2.25   400.000   -2.636E+02    5.5821588E+06   -1.2450464E+03   -1.0169218E+05    5.6550497E+06    1.2450822E+03    5.5821588E+06
    2.26   400.000   -2.641E+02    5.4882587E+06   -1.8899059E+03   -1.0323863E+05    5.4923232E+06    1.8899456E+03    5.4882587E+06
    2.27   400.000   -2.646E+02    5.4043761E+06   -2.5909303E+03   -1.0342365E+05    5.3403487E+06    2.5909734E+03    5.4043760E+06
    2.28   400.000   -2.651E+02    5.3355738E+06   -3.3775952E+03   -1.0256841E+05    5.2071508E+06    3.3776413E+03    5.3355738E+06
    2.29   400.000   -2.656E+02    5.2857318E+06   -4.1610481E+03   -1.0082074E+05    5.0997436E+06    4.1610965E+03    5.2857318E+06
    2.30   400.000   -2.661E+02    5.2567509E+06   -4.7476131E+03   -9.7942299E+04    5.0228273E+06    4.7476631E+03    5.2567509E+06
    2.31   400.000   -2.666E+02    5.2484447E+06   -4.9089287E+03   -9.3226102E+04    4.9782700E+06    4.9089797E+03    5.2484446E+06
    2.32   400.000   -2.671E+02    5.2591695E+06   -4.4815495E+03   -8.5644582E+04    4.9654191E+06    4.4816005E+03    5.2591695E+06
    2.33   400.000   -2.676E+02    5.2867550E+06   -3.4424184E+03   -7.4203115E+04    4.9818604E+06    3.4424687E+03    5.2867549E+06
    2.34   400.000   -2.681E+02    5.3290987E+06   -1.9110888E+03   -5.8349578E+04    5.0240978E+06    1.9111378E+03    5.3290987E+06
    2.35   400.000   -2.686E+02    5.3840575E+06   -7.5166034E+01   -3.8267032E+04    5.0877999E+06    7.5213536E+01    5.3840575E+06
    2.36   400.000   -2.691E+02    5.4487610E+06    1.9092957E+03   -1.4948369E+04    5.1675806E+06   -1.9092497E+03    5.4487610E+06
    2.37   400.000   -2.695E+02    5.5188324E+06    3.9740308E+03    9.9559505E+03    5.2565553E+06   -3.9739860E+03    5.5188324E+06
    2.38   400.000   -2.700E+02    5.5880224E+06    6.1190857E+03    3.4449684E+04    5.3460649E+06   -6.1190420E+03    5.5880224E+06
    2.39   400.000   -2.705E+02    5.6485366E+06    8.3405070E+03    5.6536542E+04    5.4259773E+06   -8.3404642E+03    5.6485366E+06
    2.40   400.000   -2.710E+02    5.6920393E+06    1.0558849E+04    7.4472454E+04    5.4858111E+06   -1.0558808E+04    5.6920393E+06
    2.41   400.000   -2.715E+02    5.7110739E+06    1.2594204E+04    8.6888902E+04    5.5165309E+06   -1.2594164E+04    5.7110740E+06
    2.42   400.000   -2.719E+02    5.7005004E+06    1.4201512E+04    9.2876885E+04    5.5124048E+06   -1.4201475E+04    5.7005005E+06
    2.43   400.000   -2.724E+02    5.6585234E+06    1.5145410E+04    9.2150441E+04    5.4721299E+06   -1.5145376E+04    5.6585235E+06
    2.44   400.000   -2.729E+02    5.5869904E+06    1.5274647E+04    8.5294195E+04    5.3987497E+06   -1.5274618E+04    5.5869905E+06
    2.45   400.000   -2.734E+02    5.4908937E+06    1.4563770E+04    7.3940576E+04    5.2985105E+06   -1.4563745E+04    5.4908938E+06
    2.46   400.000   -2.739E+02    5.3773319E+06    1.3117343E+04    6.0670678E+04    5.1793145E+06   -1.3117322E+04    5.3773320E+06
    2.47   400.000   -2.743E+02    5.2544067E+06    1.1153227E+04    4.8547680E+04    5.0494892E+06   -1.1153211E+04    5.2544068E+06
    2.48   400.000   -2.748E+02    5.1304600E+06    8.9782124E+03    4.0393177E+04    4.9172225E+06   -8.9782006E+03    5.1304600E+06
    2.49   400.000   -2.753E+02    5.0137062E+06    6.9540150E+03    3.8061641E+04    4.7904994E+06   -6.9540065E+03    5.0137063E+06
    2.50   400.000   -2.758E+02    4.9119427E+06    5.4488933E+03    4.1967522E+04    4.6770741E+06   -5.4488871E+03    4.9119427E+06
    2.51   400.000   -2.762E+02    4.8319407E+06    4.7833713E+03    5.0996548E+04    4.5840867E+06   -4.7833666E+03    4.8319408E+06
    2.52   400.000   -2.767E+02    4.7784293E+06    5.1882453E+03    6.2786273E+04    4.5172391E+06   -5.1882411E+03    4.7784294E+06
    2.53   400.000   -2.772E+02    4.7530111E+06    6.7840408E+03    7.4274483E+04    4.4797496E+06   -6.7840363E+03    4.7530112E+06
    2.54   400.000   -2.776E+02    4.7535615E+06    9.5725000E+03    8.2394412E+04    4.4714652E+06   -9.5724947E+03    4.7535616E+06
    2.55   400.000   -2.781E+02    4.7745143E+06    1.3424969E+04    8.4791550E+04    4.4885443E+06   -1.3424962E+04    4.7745143E+06
    2.56   400.000   -2.785E+02    4.8080829E+06    1.8067404E+04    8.0413216E+04    4.5240514E+06   -1.8067396E+04    4.8080829E+06
    2.57   400.000   -2.790E+02    4.8461198E+06    2.3079740E+04    6.9804099E+04    4.5695799E+06   -2.3079730E+04    4.8461199E+06
    2.58   400.000   -2.794E+02    4.8820954E+06    2.7928216E+04    5.4984923E+04    4.6175936E+06   -2.7928204E+04    4.8820954E+06
    2.59   400.000   -2.799E+02    4.9126375E+06    3.2034490E+04    3.8917665E+04    4.6637283E+06   -3.2034477E+04    4.9126375E+06
    2.60   400.000   -2.803E+02    4.9382351E+06    3.4871411E+04    2.4716452E+04    4.7081574E+06   -3.4871399E+04    4.9382351E+06
    2.61   400.000   -2.808E+02    4.9629773E+06    3.6068783E+04    1.4861323E+04    4.7554914E+06   -3.6068772E+04    4.9629773E+06
    2.62   400.000   -2.812E+02    4.9934378E+06    3.5505825E+04    1.0663108E+04    4.8133217E+06   -3.5505814E+04    4.9934378E+06
    2.63   400.000   -2.816E+02    5.0369441E+06    3.3358587E+04    1.2121598E+04    4.8900344E+06   -3.3358578E+04    5.0369440E+06
    2.64   400.000   -2.821E+02    5.0995997E+06    3.0073210E+04    1.8160919E+04    4.9926531E+06   -3.0073203E+04    5.0995997E+06
    2.65   400.000   -2.825E+02    5.1846038E+06    2.6260907E+04    2.7087077E+04    5.1252864E+06   -2.6260901E+04    5.1846037E+06
    2.66   400.000   -2.829E+02    5.2914873E+06    2.2548567E+04    3.7068886E+04    5.2884767E+06   -2.2548562E+04    5.2914873E+06
    2.67   400.000   -2.834E+02    5.4166406E+06    1.9443230E+04    4.6506346E+04    5.4794837E+06   -1.9443225E+04    5.4166406E+06
    2.68   400.000   -2.838E+02    5.5549129E+06    1.7259569E+04    5.4246012E+04    5.6932650E+06   -1.7259564E+04    5.5549129E+06
    2.69   400.000   -2.842E+02    5.7014620E+06    1.6123153E+04    5.9653164E+04    5.9236373E+06   -1.6123148E+04    5.7014620E+06
    2.70   400.000   -2.847E+02    5.8528464E+06    1.6025055E+04    6.2557471E+04    6.1639678E+06   -1.6025050E+04    5.8528464E+06
    2.71   400.000   -2.852E+02    6.0067986E+06    1.6887910E+04    6.3103900E+04    6.4069837E+06   -1.6887906E+04    6.0067986E+06
    2.72   400.000   -2.856E+02    6.1609068E+06    1.8611801E+04    6.1573660E+04    6.6438678E+06   -1.8611799E+04    6.1609069E+06
    2.73   400.000   -2.861E+02    6.3110375E+06    2.1087716E+04    5.8245383E+04    6.8633684E+06   -2.1087716E+04    6.3110375E+06
    2.74   400.000   -2.866E+02    6.4503634E+06    2.4184395E+04    5.3325844E+04    7.0517394E+06   -2.4184398E+04    6.4503635E+06
    2.75   400.000   -2.871E+02    6.5694294E+06    2.7725328E+04    4.6937675E+04    7.1938815E+06   -2.7725334E+04    6.5694294E+06
    2.76   400.000   -2.876E+02    6.6571690E+06    3.1474082E+04    3.9149682E+04    7.2754431E+06   -3.1474090E+04    6.6571691E+06
    2.77   400.000   -2.881E+02    6.7025113E+06    3.5139020E+04    3.0050169E+04    7.2852419E+06   -3.5139031E+04    6.7025113E+06
    2.78   400.000   -2.886E+02    6.6961832E+06    3.8397618E+04    1.9851287E+04    7.2173107E+06   -3.8397629E+04    6.6961832E+06
    2.79   400.000   -2.891E+02    6.6323693E+06    4.0933207E+04    8.9763445E+03    7.0720666E+06   -4.0933219E+04    6.6323693E+06
    2.80   400.000   -2.896E+02    6.5099294E+06    4.2476584E+04   -1.9354986E+03    6.8564403E+06   -4.2476596E+04    6.5099294E+06
    2.81   400.000   -2.901E+02    6.3329198E+06    4.2847420E+04   -1.2143689E+04    6.5830787E+06   -4.2847432E+04    6.3329198E+06
    2.82   400.000   -2.906E+02    6.1102504E+06    4.1989042E+04   -2.1011403E+04    6.2687999E+06   -4.1989054E+04    6.1102504E+06
    2.83   400.000   -2.911E+02    5.8544585E+06    3.9984276E+04   -2.8209467E+04    5.9324230E+06   -3.9984288E+04    5.8544585E+06
    2.84   400.000   -2.916E+02    5.5798289E+06    3.7037889E+04   -3.3810086E+04    5.5921848E+06   -3.7037900E+04    5.5798289E+06
    2.85   400.000   -2.921E+02    5.3003229E+06    3.3421693E+04   -3.8213699E+04    5.2632551E+06   -3.3421704E+04    5.3003228E+06
    2.86   400.000   -2.925E+02    5.0278395E+06    2.9400129E+04   -4.1946714E+04    4.9560392E+06   -2.9400139E+04    5.0278394E+06
    2.87   400.000   -2.930E+02    4.7711694E+06    2.5171992E+04   -4.5439155E+04    4.6757427E+06   -2.5172001E+04    4.7711694E+06
    2.88   400.000   -2.935E+02    4.5357231E+06    2.0860193E+04   -4.8891567E+04    4.4231706E+06   -2.0860201E+04    4.5357231E+06
    2.89   400.000   -2.939E+02    4.3238862E+06    1.6554104E+04   -5.2279596E+04    4.1963130E+06   -1.6554110E+04    4.3238862E+06
    2.90   400.000   -2.944E+02    4.1357512E+06    1.2376831E+04   -5.5469679E+04    3.9921525E+06   -1.2376837E+04    4.1357512E+06
    2.91   400.000   -2.949E+02    3.9699918E+06    8.5340986E+03   -5.8372075E+04    3.8082220E+06   -8.5341049E+03    3.9699918E+06
    2.92   400.000   -2.954E+02    3.8247168E+06    5.3089233E+03   -6.1051658E+04    3.6435706E+06   -5.3089299E+03    3.8247168E+06
    2.93   400.000   -2.958E+02    3.6981959E+06    2.9910827E+03   -6.3741929E+04    3.4989536E+06   -2.9910899E+03    3.6981960E+06
    2.94   400.000   -2.963E+02    3.5893950E+06    1.7646776E+03   -6.6745737E+04    3.3763034E+06   -1.7646857E+03    3.5893950E+06
    2.95   400.000   -2.968E+02    3.4982789E+06    1.6077152E+03   -7.0246929E+04    3.2778139E+06   -1.6077240E+03    3.4982789E+06
    2.96   400.000   -2.973E+02    3.4258316E+06    2.2622175E+03   -7.4099585E+04    3.2050812E+06   -2.2622270E+03    3.4258317E+06
    2.97   400.000   -2.978E+02    3.3737294E+06    3.2985435E+03   -7.7696452E+04    3.1586160E+06   -3.2985534E+03    3.3737294E+06
    2.98   400.000   -2.983E+02    3.3436818E+06    4.2439875E+03   -8.0015332E+04    3.1377807E+06   -4.2439974E+03    3.3436818E+06
    2.99   400.000   -2.988E+02    3.3366349E+06    4.7151182E+03   -7.9871585E+04    3.1409849E+06   -4.7151279E+03    3.3366350E+06
    3.00   400.000   -2.993E+02    3.3521595E+06    4.5046066E+03   -7.6289866E+04    3.1658989E+06   -4.5046160E+03    3.3521596E+06
    3.01   400.000   -2.998E+02    3.3882930E+06    3.6053668E+03   -6.8831251E+04    3.2095341E+06   -3.6053761E+03    3.3882931E+06
    3.02   400.000   -3.003E+02    3.4418944E+06    2.1782222E+03   -5.7737171E+04    3.2682381E+06   -2.1782318E+03    3.4418944E+06
    3.03   400.000   -3.008E+02    3.5093514E+06    4.7834349E+02   -4.3855781E+04    3.3378207E+06   -4.7835398E+02    3.5093515E+06
    3.04   400.000   -3.013E+02    3.5873758E+06   -1.2376337E+03   -2.8420056E+04    3.4140077E+06    1.2376217E+03    3.5873759E+06
    3.05   400.000   -3.018E+02    3.6736413E+06   -2.7933100E+03   -1.2791550E+04    3.4932047E+06    2.7932961E+03    3.6736413E+06
    3.06   400.000   -3.023E+02    3.7671090E+06   -4.1322550E+03    1.7394811E+03    3.5733061E+06    4.1322389E+03    3.7671091E+06
    3.07   400.000   -3.028E+02    3.8679928E+06   -5.3009685E+03    1.4071141E+04    3.6541891E+06    5.3009505E+03    3.8679928E+06
    3.08   400.000   -3.033E+02    3.9773983E+06   -6.3851315E+03    2.3356578E+04    3.7376418E+06    6.3851121E+03    3.9773983E+06
    3.09   400.000   -3.038E+02    4.0967273E+06   -7.4280772E+03    2.9067279E+04    3.8266950E+06    7.4280570E+03    4.0967274E+06
    3.10   400.000   -3.043E+02    4.2269443E+06   -8.3657902E+03    3.1069559E+04    3.9245177E+06    8.3657699E+03    4.2269444E+06
    3.11   400.000   -3.049E+02    4.3677966E+06   -9.0077269E+03    2.9689404E+04    4.0331459E+06    9.0077072E+03    4.3677967E+06
    3.12   400.000   -3.054E+02    4.5171031E+06   -9.0812719E+03    2.5723373E+04    4.1523697E+06    9.0812533E+03    4.5171031E+06
    3.13   400.000   -3.059E+02    4.6703090E+06   -8.3361451E+03    2.0368798E+04    4.2791202E+06    8.3361281E+03    4.6703090E+06
    3.14   400.000   -3.064E+02    4.8205856E+06   -6.6715601E+03    1.5077340E+04    4.4076233E+06    6.6715449E+03    4.8205857E+06
    3.15   400.000   -3.069E+02    4.9596996E+06   -4.2206621E+03    1.1356444E+04    4.5304004E+06    4.2206488E+03    4.9596996E+06
    3.16   400.000   -3.075E+02    5.0796238E+06   -1.3342450E+03    1.0545557E+04    4.6399117E+06    1.3342333E+03    5.0796239E+06
    3.17   400.000   -3.080E+02    5.1744798E+06    1.5416194E+03    1.3593259E+04    4.7303476E+06   -1.5416299E+03    5.1744798E+06
    3.18   400.000   -3.085E+02    5.2421096E+06    4.0330908E+03    2.0871987E+04    4.7989263E+06   -4.0331009E+03    5.2421096E+06
    3.19   400.000   -3.090E+02    5.2846104E+06    5.9591531E+03    3.2081223E+04    4.8461937E+06   -5.9591636E+03    5.2846104E+06
    3.20   400.000   -3.095E+02    5.3075809E+06    7.3424007E+03    4.6286235E+04    4.8752809E+06   -7.3424128E+03    5.3075809E+06
    3.21   400.000   -3.100E+02    5.3184128E+06    8.3170825E+03    6.2103166E+04    4.8906001E+06   -8.3170974E+03    5.3184128E+06
    3.22   400.000   -3.105E+02    5.3243706E+06    9.0017775E+03    7.7977619E+04    4.8966773E+06   -9.0017960E+03    5.3243707E+06
    3.23   400.000   -3.110E+02    5.3311745E+06    9.4139217E+03    9.2448236E+04    4.8975555E+06   -9.4139446E+03    5.3311745E+06
    3.24   400.000   -3.115E+02    5.3423738E+06    9.4653735E+03    1.0429306E+05    4.8966726E+06   -9.4654010E+03    5.3423738E+06
    3.25   400.000   -3.120E+02    5.3593036E+06    9.0285924E+03    1.1254293E+05    4.8967687E+06   -9.0286243E+03    5.3593035E+06
    3.26   400.000   -3.125E+02    5.3812127E+06    8.0321395E+03    1.1645046E+05    4.8994782E+06   -8.0321752E+03    5.3812127E+06
    3.27   400.000   -3.129E+02    5.4053383E+06    6.5373019E+03    1.1552797E+05    4.9046847E+06   -6.5373406E+03    5.4053382E+06
    3.28   400.000   -3.134E+02    5.4270463E+06    4.7585533E+03    1.0968499E+05    4.9100871E+06   -4.7585939E+03    5.4270462E+06
    3.29   400.000   -3.138E+02    5.4403663E+06    3.0148500E+03    9.9381642E+04    4.9114654E+06   -3.0148915E+03    5.4403663E+06
    3.30   400.000   -3.143E+02    5.4391650E+06    1.6292995E+03    8.5667925E+04    4.9038294E+06   -1.6293406E+03    5.4391649E+06
    3.31   400.000   -3.147E+02    5.4188587E+06    8.1778442E+02    7.0035212E+04    4.8831644E+06   -8.1782423E+02    5.4188587E+06
    3.32   400.000   -3.151E+02    5.3781018E+06    6.1120434E+02    5.4117752E+04    4.8480875E+06   -6.1124207E+02    5.3781018E+06
    3.33   400.000   -3.155E+02    5.3196347E+06    8.4091976E+02    3.9372487E+04    4.8006812E+06   -8.4095499E+02    5.3196347E+06
    3.34   400.000   -3.159E+02    5.2497584E+06    1.1918414E+03    2.6871515E+04    4.7461742E+06   -1.1918739E+03    5.2497584E+06
    3.35   400.000   -3.163E+02    5.1766206E+06    1.3037509E+03    1.7255335E+04    4.6917359E+06   -1.3037808E+03    5.1766206E+06
    3.36   400.000   -3.167E+02    5.1081200E+06    8.8693411E+02    1.0782283E+04    4.6449639E+06   -8.8696123E+02    5.1081200E+06
    3.37   400.000   -3.171E+02    5.0502773E+06   -1.8549325E+02    7.3639403E+03    4.6124800E+06    1.8546908E+02    5.0502773E+06
    3.38   400.000   -3.175E+02    5.0064640E+06   -1.8412659E+03    6.5324442E+03    4.5987356E+06    1.8412451E+03    5.0064640E+06
    3.39   400.000   -3.179E+02    4.9773778E+06   -3.8466690E+03    7.3883556E+03    4.6050543E+06    3.8466520E+03    4.9773778E+06
    3.40   400.000   -3.182E+02    4.9614580E+06   -5.9088184E+03    8.6353838E+03    4.6291559E+06    5.9088056E+03    4.9614581E+06
    3.41   400.000   -3.186E+02    4.9555363E+06   -7.8003210E+03    8.7683177E+03    4.6655673E+06    7.8003125E+03    4.9555364E+06
    3.42   400.000   -3.190E+02    4.9556683E+06   -9.4478374E+03    6.3740087E+03    4.7070878E+06    9.4478330E+03    4.9556684E+06
    3.43   400.000   -3.193E+02    4.9580695E+06   -1.0943824E+04    4.2542327E+02    4.7469083E+06    1.0943823E+04    4.9580695E+06
    3.44   400.000   -3.196E+02    4.9599059E+06   -1.2483269E+04   -9.5362070E+03    4.7805204E+06    1.2483270E+04    4.9599059E+06
    3.45   400.000   -3.199E+02    4.9596029E+06   -1.4263023E+04   -2.3350588E+04    4.8066558E+06    1.4263025E+04    4.9596029E+06
    3.46   400.000   -3.203E+02    4.9565267E+06   -1.6386989E+04   -4.0266110E+04    4.8270807E+06    1.6386989E+04    4.9565268E+06
    3.47   400.000   -3.206E+02    4.9502875E+06   -1.8802606E+04   -5.8992560E+04    4.8456320E+06    1.8802604E+04    4.9502875E+06
    3.48   400.000   -3.209E+02    4.9401811E+06   -2.1277364E+04   -7.7785327E+04    4.8670177E+06    2.1277358E+04    4.9401811E+06
    3.49   400.000   -3.211E+02    4.9251897E+06   -2.3421228E+04   -9.4622679E+04    4.8957198E+06    2.3421219E+04    4.9251897E+06
    3.50   400.000   -3.214E+02    4.9045428E+06   -2.4761724E+04   -1.0751755E+05    4.9351191E+06    2.4761712E+04    4.9045427E+06
    3.51   400.000   -3.217E+02    4.8784268E+06   -2.4865738E+04   -1.1490773E+05    4.9868308E+06    2.4865722E+04    4.8784268E+06
    3.52   400.000   -3.219E+02    4.8482959E+06   -2.3474443E+04   -1.1598441E+05    5.0501275E+06    2.3474426E+04    4.8482959E+06
    3.53   400.000   -3.222E+02    4.8164625E+06   -2.0595586E+04   -1.1083785E+05    5.1212760E+06    2.0595568E+04    4.8164625E+06
    3.54   400.000   -3.225E+02    4.7850889E+06   -1.6506871E+04   -1.0039638E+05    5.1928114E+06    1.6506854E+04    4.7850888E+06
    3.55   400.000   -3.227E+02    4.7550810E+06   -1.1669979E+04   -8.6207473E+04    5.2532216E+06    1.1669965E+04    4.7550810E+06
    3.56   400.000   -3.230E+02    4.7254945E+06   -6.6052138E+03   -7.0120706E+04    5.2878338E+06    6.6052022E+03    4.7254944E+06
    3.57   400.000   -3.232E+02    4.6938019E+06   -1.7892421E+03   -5.3937281E+04    5.2814021E+06    1.7892344E+03    4.6938018E+06
    3.58   400.000   -3.235E+02    4.6568951E+06    2.3950431E+03   -3.9120015E+04    5.2219586E+06   -2.3950467E+03    4.6568951E+06
    3.59   400.000   -3.238E+02    4.6122810E+06    5.6700031E+03   -2.6660163E+04    5.1045141E+06   -5.6700030E+03    4.6122809E+06
    3.60   400.000   -3.240E+02    4.5588542E+06    7.8629545E+03   -1.7124349E+04    4.9329824E+06   -7.8629509E+03    4.5588541E+06
    3.61   400.000   -3.243E+02    4.4969420E+06    8.9065175E+03   -1.0797055E+04    4.7194861E+06   -8.9065110E+03    4.4969419E+06
    3.62   400.000   -3.246E+02    4.4277827E+06    8.8368924E+03   -7.7850968E+03    4.4814360E+06   -8.8368830E+03    4.4277827E+06
    3.63   400.000   -3.249E+02    4.3528825E+06    7.7856590E+03   -8.0083977E+03    4.2376363E+06   -7.7856466E+03    4.3528825E+06
    3.64   400.000   -3.252E+02    4.2736230E+06    5.9642503E+03   -1.1118707E+04    4.0047517E+06   -5.9642345E+03    4.2736230E+06
    3.65   400.000   -3.255E+02    4.1912130E+06    3.6411658E+03   -1.6463151E+04    3.7949911E+06   -3.6411465E+03    4.1912130E+06
    3.66   400.000   -3.258E+02    4.1068362E+06    1.1137301E+03   -2.3180931E+04    3.6152311E+06   -1.1137074E+03    4.1068362E+06
    3.67   400.000   -3.261E+02    4.0217773E+06   -1.3196114E+03   -3.0421612E+04    3.4673188E+06    1.3196369E+03    4.0217773E+06
    3.68   400.000   -3.264E+02    3.9373572E+06   -3.3808305E+03   -3.7588004E+04    3.3490695E+06    3.3808579E+03    3.9373572E+06
    3.69   400.000   -3.267E+02    3.8546405E+06   -4.8301019E+03   -4.4491768E+04    3.2555286E+06    4.8301298E+03    3.8546405E+06
    3.70   400.000   -3.270E+02    3.7740405E+06   -5.4880932E+03   -5.1356682E+04    3.1802610E+06    5.4881203E+03    3.7740405E+06
    3.71   400.000   -3.273E+02    3.6950544E+06   -5.2633783E+03   -5.8668773E+04    3.1165853E+06    5.2634035E+03    3.6950544E+06
    3.72   400.000   -3.276E+02    3.6163218E+06   -4.1700327E+03   -6.6922359E+04    3.0586806E+06    4.1700551E+03    3.6163218E+06
    3.73   400.000   -3.279E+02    3.5360508E+06   -2.3176195E+03   -7.6341397E+04    3.0024439E+06    2.3176386E+03    3.5360507E+06
    3.74   400.000   -3.282E+02    3.4527358E+06    1.2447036E+02   -8.6669316E+04    2.9459851E+06   -1.2445478E+02    3.4527358E+06
    3.75   400.000   -3.285E+02    3.3660182E+06    2.9636617E+03   -9.7108526E+04    2.8897150E+06   -2.9636497E+03    3.3660182E+06
    3.76   400.000   -3.288E+02    3.2774501E+06    6.0003587E+03   -1.0644027E+05    2.8360524E+06   -6.0003501E+03    3.2774501E+06
    3.77   400.000   -3.291E+02    3.1908392E+06    9.0293728E+03   -1.1328076E+05    2.7888039E+06   -9.0293678E+03    3.1908392E+06
    3.78   400.000   -3.294E+02    3.1118980E+06    1.1849770E+04   -1.1637967E+05    2.7523102E+06   -1.1849769E+04    3.1118980E+06
    3.79   400.000   -3.297E+02    3.0471878E+06    1.4292985E+04   -1.1488089E+05    2.7305316E+06   -1.4292988E+04    3.0471878E+06
    3.80   400.000   -3.300E+02    3.0026907E+06    1.6253738E+04   -1.0851934E+05    2.7263060E+06   -1.6253746E+04    3.0026907E+06
    3.81   400.000   -3.303E+02    2.9825228E+06    1.7701687E+04   -9.7756172E+04    2.7409875E+06   -1.7701700E+04    2.9825227E+06
    3.82   400.000   -3.305E+02    2.9881841E+06    1.8668587E+04   -8.3829621E+04    2.7744976E+06   -1.8668607E+04    2.9881841E+06
    3.83   400.000   -3.308E+02    3.0184292E+06    1.9225230E+04   -6.8657889E+04    2.8255929E+06   -1.9225256E+04    3.0184292E+06
    3.84   400.000   -3.311E+02    3.0695462E+06    1.9465688E+04   -5.4533382E+04    2.8920282E+06   -1.9465722E+04    3.0695462E+06
    3.85   400.000   -3.314E+02    3.1357679E+06    1.9503568E+04   -4.3613495E+04    2.9704228E+06   -1.9503609E+04    3.1357679E+06
    3.86   400.000   -3.317E+02    3.2097159E+06    1.9471572E+04   -3.7316071E+04    3.0559583E+06   -1.9471620E+04    3.2097159E+06
    3.87   400.000   -3.320E+02    3.2830583E+06    1.9515556E+04   -3.5819575E+04    3.1423524E+06   -1.9515610E+04    3.2830583E+06
    3.88   400.000   -3.323E+02    3.3476455E+06    1.9782962E+04   -3.7899701E+04    3.2226041E+06   -1.9783021E+04    3.3476454E+06
    3.89   400.000   -3.326E+02    3.3971269E+06    2.0407591E+04   -4.1263847E+04    3.2906459E+06   -2.0407653E+04    3.3971269E+06
    3.90   400.000   -3.329E+02    3.4285780E+06    2.1486431E+04   -4.3356440E+04    3.3433881E+06   -2.1486495E+04    3.4285780E+06
    3.91   400.000   -3.332E+02    3.4433829E+06    2.3046114E+04   -4.2357021E+04    3.3821346E+06   -2.3046177E+04    3.4433828E+06
    3.92   400.000   -3.335E+02    3.4468588E+06    2.5012668E+04   -3.7928556E+04    3.4125062E+06   -2.5012730E+04    3.4468587E+06
    3.93   400.000   -3.338E+02    3.4467529E+06    2.7208112E+04   -3.1348247E+04    3.4428274E+06   -2.7208170E+04    3.4467529E+06
    3.94   400.000   -3.341E+02    3.4513213E+06    2.9381086E+04   -2.4963244E+04    3.4818363E+06   -2.9381141E+04    3.4513213E+06
    3.95   400.000   -3.345E+02    3.4677912E+06    3.1249431E+04   -2.1260606E+04    3.5368554E+06   -3.1249482E+04    3.4677911E+06
    3.96   400.000   -3.348E+02    3.5016502E+06    3.2525068E+04   -2.1993246E+04    3.6131144E+06   -3.2525114E+04    3.5016501E+06
    3.97   400.000   -3.351E+02    3.5567535E+06    3.2917625E+04   -2.7695804E+04    3.7142094E+06   -3.2917668E+04    3.5567534E+06
    3.98   400.000   -3.354E+02    3.6359831E+06    3.2143314E+04   -3.7682226E+04    3.8432461E+06   -3.2143353E+04    3.6359830E+06
    3.99   400.000   -3.357E+02    3.7421265E+06    2.9963523E+04   -5.0413534E+04    4.0041226E+06   -2.9963559E+04    3.7421265E+06
    4.00   400.000   -3.360E+02    3.8786397E+06    2.6245758E+04   -6.4038134E+04    4.2024608E+06   -2.6245792E+04    3.8786396E+06
    4.01   400.000   -3.364E+02    4.0500032E+06    2.1015031E+04   -7.6909411E+04    4.4457777E+06   -2.1015064E+04    4.0500031E+06
    4.02   400.000   -3.367E+02    4.2615438E+06    1.4470418E+04   -8.7927315E+04    4.7426669E+06   -1.4470450E+04    4.2615437E+06
    4.03   400.000   -3.370E+02    4.5188282E+06    6.9629669E+03   -9.6622039E+04    5.1010823E+06   -6.9629997E+03    4.5188282E+06
    4.04   400.000   -3.374E+02    4.8268828E+06   -1.0601286E+03   -1.0299779E+05    5.5261253E+06    1.0600948E+03    4.8268828E+06
    4.05   400.000   -3.377E+02    5.1894269E+06   -9.1436516E+03   -1.0724114E+05    6.0178536E+06    9.1436159E+03    5.1894268E+06
    4.06   400.000   -3.381E+02    5.6081113E+06   -1.6933998E+04   -1.0941968E+05    6.5695276E+06    1.6933959E+04    5.6081112E+06
    4.07   400.000   -3.384E+02    6.0816341E+06   -2.4269033E+04   -1.0926252E+05    7.1665704E+06    2.4268991E+04    6.0816340E+06
    4.08   400.000   -3.388E+02    6.6047233E+06   -3.1185140E+04   -1.0608392E+05    7.7864963E+06    3.1185096E+04    6.6047232E+06
    4.09   400.000   -3.392E+02    7.1672630E+06   -3.7804385E+04   -9.8903131E+04    8.4001327E+06    3.7804338E+04    7.1672629E+06
    4.10   400.000   -3.396E+02    7.7540469E+06   -4.4137659E+04   -8.6774103E+04    8.9743906E+06    4.4137610E+04    7.7540468E+06
    4.11   400.000   -3.400E+02    8.3455373E+06   -4.9908494E+04   -6.9237216E+04    9.4764583E+06    4.9908444E+04    8.3455373E+06
    4.12   400.000   -3.404E+02    8.9195889E+06   -5.4507558E+04   -4.6710690E+04    9.8786790E+06    5.4507509E+04    8.9195888E+06
    4.13   400.000   -3.408E+02    9.4536380E+06   -5.7118395E+04   -2.0645753E+04    1.0162900E+07    5.7118347E+04    9.4536379E+06
    4.14   400.000   -3.412E+02    9.9267154E+06   -5.6961013E+04    6.6240066E+03    1.0323112E+07    5.6960968E+04    9.9267153E+06
    4.15   400.000   -3.416E+02    1.0320925E+07   -5.3546393E+04    3.2291563E+04    1.0365739E+07    5.3546351E+04    1.0320925E+07
    4.16   400.000   -3.421E+02    1.0622473E+07   -4.6845423E+04    5.3629645E+04    1.0307573E+07    4.6845383E+04    1.0622473E+07
    4.17   400.000   -3.425E+02    1.0822507E+07   -3.7326367E+04    6.8547438E+04    1.0171830E+07    3.7326330E+04    1.0822506E+07
    4.18   400.000   -3.429E+02    1.0917859E+07   -2.5868200E+04    7.5998684E+04    9.9831751E+06    2.5868167E+04    1.0917859E+07
    4.19   400.000   -3.433E+02    1.0911491E+07   -1.3589340E+04    7.6110520E+04    9.7629872E+06    1.3589310E+04    1.0911491E+07
    4.20   400.000   -3.437E+02    1.0812296E+07   -1.6406973E+03    6.9992586E+04    9.5262418E+06    1.6406695E+03    1.0812296E+07
    4.21   400.000   -3.441E+02    1.0634083E+07    8.9888957E+03    5.9326280E+04    9.2808187E+06   -8.9889213E+03    1.0634082E+07
    4.22   400.000   -3.446E+02    1.0393806E+07    1.7610863E+04    4.5929595E+04    9.0290396E+06   -1.7610887E+04    1.0393806E+07
    4.23   400.000   -3.450E+02    1.0109412E+07    2.3888783E+04    3.1459706E+04    8.7704643E+06   -2.3888806E+04    1.0109412E+07
    4.24   400.000   -3.453E+02    9.7978083E+06    2.7802619E+04    1.7286532E+04    8.5048308E+06   -2.7802642E+04    9.7978082E+06
    4.25   400.000   -3.457E+02    9.4734970E+06    2.9554843E+04    4.4666195E+03    8.2343223E+06   -2.9554866E+04    9.4734969E+06
    4.26   400.000   -3.461E+02    9.1482039E+06    2.9464380E+04   -6.2619445E+03    7.9647175E+06   -2.9464406E+04    9.1482038E+06
    4.27   400.000   -3.465E+02    8.8314837E+06    2.7888257E+04   -1.4490984E+04    7.7052788E+06   -2.7888284E+04    8.8314836E+06
    4.28   400.000   -3.469E+02    8.5318335E+06    2.5187442E+04   -2.0139998E+04    7.4675047E+06   -2.5187471E+04    8.5318334E+06
    4.29   400.000   -3.472E+02    8.2576037E+06    2.1727468E+04   -2.3407299E+04    7.2631621E+06   -2.1727497E+04    8.2576036E+06
    4.30   400.000   -3.476E+02    8.0171718E+06    1.7890098E+04   -2.4664289E+04    7.1022357E+06   -1.7890127E+04    8.0171717E+06
    4.31   400.000   -3.479E+02    7.8183491E+06    1.4071280E+04   -2.4322387E+04    6.9914505E+06   -1.4071308E+04    7.8183491E+06
    4.32   400.000   -3.483E+02    7.6674453E+06    1.0647363E+04   -2.2722954E+04    6.9337627E+06   -1.0647389E+04    7.6674453E+06
    4.33   400.000   -3.486E+02    7.5684827E+06    7.9073953E+03   -2.0083566E+04    6.9287518E+06   -7.9074185E+03    7.5684826E+06
    4.34   400.000   -3.489E+02    7.5227684E+06    5.9753216E+03   -1.6506786E+04    6.9734380E+06   -5.9753423E+03    7.5227683E+06
    4.35   400.000   -3.493E+02    7.5287322E+06    4.7673052E+03   -1.2054157E+04    7.0629426E+06   -4.7673240E+03    7.5287322E+06
    4.36   400.000   -3.496E+02    7.5818782E+06    4.0224816E+03   -6.8924573E+03    7.1906914E+06   -4.0224995E+03    7.5818781E+06
    4.37   400.000   -3.500E+02    7.6748361E+06    3.4053614E+03   -1.4889080E+03    7.3483039E+06   -3.4053797E+03    7.6748361E+06
    4.38   400.000   -3.504E+02    7.7976256E+06    2.6334078E+03    3.2311581E+03    7.5256073E+06   -2.6334276E+03    7.7976256E+06
    4.39   400.000   -3.507E+02    7.9382314E+06    1.5726347E+03    5.8898279E+03    7.7111310E+06   -1.5726571E+03    7.9382314E+06
    4.40   400.000   -3.511E+02    8.0834849E+06    2.7284300E+02    4.9133873E+03    7.8931019E+06   -2.7286892E+02    8.0834849E+06
    4.41   400.000   -3.515E+02    8.2201582E+06   -1.0530263E+03   -9.8243761E+02    8.0606338E+06    1.0529963E+03    8.2201582E+06
    4.42   400.000   -3.518E+02    8.3361419E+06   -2.0941382E+03   -1.2227635E+04    8.2047132E+06    2.0941040E+03    8.3361419E+06
    4.43   400.000   -3.522E+02    8.4215830E+06   -2.5480208E+03   -2.7975588E+04    8.3187320E+06    2.5479823E+03    8.4215830E+06
    4.44   400.000   -3.526E+02    8.4698766E+06   -2.2553029E+03   -4.6032990E+04    8.3985692E+06    2.2552604E+03    8.4698766E+06
    4.45   400.000   -3.530E+02    8.4784005E+06   -1.3171496E+03   -6.3261203E+04    8.4424143E+06    1.3171034E+03    8.4784005E+06
    4.46   400.000   -3.534E+02    8.4488497E+06   -1.2176126E+02   -7.6416800E+04    8.4505604E+06    1.2171159E+02    8.4488497E+06
    4.47   400.000   -3.538E+02    8.3870102E+06    7.7269654E+02   -8.3207379E+04    8.4253046E+06   -7.7274930E+02    8.3870102E+06
    4.48   400.000   -3.542E+02    8.3019182E+06    8.7111493E+02   -8.3170646E+04    8.3709782E+06   -8.7117031E+02    8.3019181E+06
    4.49   400.000   -3.545E+02    8.2045706E+06   -2.5371394E+01   -7.7955572E+04    8.2940404E+06    2.5313950E+01    8.2045705E+06
    4.50   400.000   -3.549E+02    8.1065086E+06   -1.7209068E+03   -7.0780599E+04    8.2030842E+06    1.7208480E+03    8.1065085E+06
    4.51   400.000   -3.553E+02    8.0185208E+06   -3.7193923E+03   -6.5220375E+04    8.1084895E+06    3.7193327E+03    8.0185207E+06
    4.52   400.000   -3.557E+02    7.9494983E+06   -5.4518712E+03   -6.3835666E+04    8.0214411E+06    5.4518114E+03    7.9494982E+06
    4.53   400.000   -3.561E+02    7.9053902E+06   -6.5034183E+03   -6.7277372E+04    7.9522788E+06    6.5033587E+03    7.9053901E+06
    4.54   400.000   -3.565E+02    7.8884058E+06   -6.7259276E+03   -7.4262290E+04    7.9086146E+06    6.7258681E+03    7.8884058E+06
    4.55   400.000   -3.569E+02    7.8968963E+06   -6.2129002E+03   -8.2358759E+04    7.8939945E+06    6.2128406E+03    7.8968963E+06
    4.56   400.000   -3.573E+02    7.9263210E+06   -5.1990466E+03   -8.9111362E+04    7.9077456E+06    5.1989867E+03    7.9263210E+06
    4.57   400.000   -3.578E+02    7.9712335E+06   -3.9680747E+03   -9.2921637E+04    7.9460517E+06    3.9680143E+03    7.9712335E+06
    4.58   400.000   -3.582E+02    8.0276048E+06   -2.8047316E+03   -9.3335768E+04    8.0036664E+06    2.8046705E+03    8.0276048E+06
    4.59   400.000   -3.586E+02    8.0945345E+06   -1.9683925E+03   -9.0781560E+04    8.0754731E+06    1.9683310E+03    8.0945345E+06
    4.60   400.000   -3.590E+02    8.1746560E+06   -1.6525948E+03   -8.6064609E+04    8.1573756E+06    1.6525333E+03    8.1746561E+06
    4.61   400.000   -3.595E+02    8.2730747E+06   -1.9314896E+03   -7.9943202E+04    8.2464414E+06    1.9314291E+03    8.2730748E+06
    4.62   400.000   -3.599E+02    8.3951794E+06   -2.7326520E+03   -7.2945566E+04    8.3404833E+06    2.7325935E+03    8.3951795E+06
    4.63   400.000   -3.603E+02    8.5440003E+06   -3.8710991E+03   -6.5429542E+04    8.4373652E+06    3.8710436E+03    8.5440003E+06
    4.64   400.000   -3.608E+02    8.7179236E+06   -5.1355868E+03   -5.7776664E+04    8.5343516E+06    5.1355356E+03    8.7179236E+06
    4.65   400.000   -3.612E+02    8.9094539E+06   -6.3789220E+03   -5.0558497E+04    8.6277595E+06    6.3788762E+03    8.9094539E+06
    4.66   400.000   -3.617E+02    9.1053825E+06   -7.5631505E+03   -4.4539129E+04    8.7129534E+06    7.5631111E+03    9.1053825E+06
    4.67   400.000   -3.622E+02    9.2883595E+06   -8.7413909E+03   -4.0501514E+04    8.7845180E+06    8.7413589E+03    9.2883595E+06
    4.68   400.000   -3.626E+02    9.4396036E+06   -9.9928012E+03   -3.9024084E+04    8.8364805E+06    9.9927774E+03    9.4396036E+06
    4.69   400.000   -3.631E+02    9.5422437E+06   -1.1350533E+04   -4.0352060E+04    8.8626519E+06    1.1350519E+04    9.5422437E+06
    4.70   400.000   -3.636E+02    9.5844859E+06   -1.2770005E+04   -4.4385547E+04    8.8572228E+06    1.2770000E+04    9.5844859E+06
    4.71   400.000   -3.641E+02    9.5616060E+06   -1.4162235E+04   -5.0693473E+04    8.8155460E+06    1.4162240E+04    9.5616060E+06
    4.72   400.000   -3.645E+02    9.4760017E+06   -1.5461531E+04   -5.8503290E+04    8.7348122E+06    1.5461546E+04    9.4760016E+06
    4.73   400.000   -3.650E+02    9.3352823E+06   -1.6654844E+04   -6.6753065E+04    8.6143605E+06    1.6654870E+04    9.3352822E+06
    4.74   400.000   -3.655E+02    9.1492765E+06   -1.7731895E+04   -7.4321284E+04    8.4556415E+06    1.7731930E+04    9.1492765E+06
    4.75   400.000   -3.659E+02    8.9273384E+06   -1.8604038E+04   -8.0388666E+04    8.2620773E+06    1.8604082E+04    8.9273384E+06
    4.76   400.000   -3.663E+02    8.6770832E+06   -1.9086371E+04   -8.4702219E+04    8.0390109E+06    1.9086421E+04    8.6770831E+06
    4.77   400.000   -3.668E+02    8.4048229E+06   -1.8979345E+04   -8.7525915E+04    7.7936930E+06    1.8979398E+04    8.4048229E+06
    4.78   400.000   -3.672E+02    8.1170633E+06   -1.8184606E+04   -8.9289192E+04    7.5350856E+06    1.8184661E+04    8.1170632E+06
    4.79   400.000   -3.676E+02    7.8219858E+06   -1.6755820E+04   -9.0180975E+04    7.2733470E+06    1.6755875E+04    7.8219857E+06
    4.80   400.000   -3.680E+02    7.5300127E+06   -1.4846562E+04   -8.9969567E+04    7.0190554E+06    1.4846616E+04    7.5300126E+06
    4.81   400.000   -3.684E+02    7.2531023E+06   -1.2604081E+04   -8.8127097E+04    6.7823322E+06    1.2604135E+04    7.2531022E+06
    4.82   400.000   -3.688E+02    7.0030257E+06   -1.0094448E+04   -8.4087846E+04    6.5719946E+06    1.0094502E+04    7.0030256E+06
    4.83   400.000   -3.692E+02    6.7892542E+06   -7.3147479E+03   -7.7407439E+04    6.3948065E+06    7.3148020E+03    6.7892541E+06
    4.84   400.000   -3.696E+02    6.6171409E+06   -4.2820059E+03   -6.7754910E+04    6.2548493E+06    4.2820603E+03    6.6171409E+06
    4.85   400.000   -3.700E+02    6.4868892E+06   -1.1328798E+03   -5.4872769E+04    6.1530446E+06    1.1329343E+03    6.4868891E+06
    4.86   400.000   -3.704E+02    6.3935267E+06    1.8389738E+03   -3.8681831E+04    6.0869151E+06   -1.8389196E+03    6.3935266E+06
    4.87   400.000   -3.707E+02    6.3278338E+06    4.2363615E+03   -1.9563744E+04    6.0507207E+06   -4.2363083E+03    6.3278338E+06
    4.88   400.000   -3.711E+02    6.2779535E+06    5.6732640E+03    1.3458403E+03    6.0360337E+06   -5.6732128E+03    6.2779535E+06
    4.89   400.000   -3.715E+02    6.2312992E+06    5.8918402E+03    2.2117001E+04    6.0326683E+06   -5.8917916E+03    6.2312992E+06
    4.90   400.000   -3.719E+02    6.1764194E+06    4.8313693E+03    4.0405967E+04    6.0297984E+06   -4.8313239E+03    6.1764194E+06
    4.91   400.000   -3.722E+02    6.1045780E+06    2.6287286E+03    5.4174475E+04    6.0171361E+06   -2.6286865E+03    6.1045780E+06
    4.92   400.000   -3.726E+02    6.0108619E+06   -4.3777701E+02    6.2419676E+04    5.9861035E+06    4.3781617E+02    6.0108619E+06
    4.93   400.000   -3.730E+02    5.8946349E+06   -4.0285512E+03    6.5523646E+04    5.9308973E+06    4.0285879E+03    5.8946350E+06
    4.94   400.000   -3.734E+02    5.7592523E+06   -7.8107244E+03    6.5019802E+04    5.8492675E+06    7.8107592E+03    5.7592523E+06
    4.95   400.000   -3.737E+02    5.6111420E+06   -1.1490365E+04    6.2890027E+04    5.7428163E+06    1.1490398E+04    5.6111420E+06
    4.96   400.000   -3.741E+02    5.4585388E+06   -1.4808576E+04    6.0736355E+04    5.6166976E+06    1.4808606E+04    5.4585387E+06
    4.97   400.000   -3.744E+02    5.3101663E+06   -1.7525246E+04    5.9196728E+04    5.4786870E+06    1.7525273E+04    5.3101663E+06
    4.98   400.000   -3.748E+02    5.1740059E+06   -1.9421003E+04    5.7833670E+04    5.3376556E+06    1.9421025E+04    5.1740059E+06
    4.99   400.000   -3.751E+02    5.0561415E+06   -2.0328880E+04    5.5506430E+04    5.2016340E+06    2.0328895E+04    5.0561415E+06
    5.00   400.000   -3.754E+02    4.9597037E+06   -2.0178738E+04    5.1012004E+04    5.0759175E+06    2.0178746E+04    4.9597037E+06
# T(K) = 500.00   Npoints =    1001   V(cm^3) =  1.231E-20
   -5.00   500.000    3.455E+02    1.8211264E+06   -1.2247585E+02   -3.0903965E+04    1.7299426E+06    1.2246980E+02    1.8211264E+06
   -4.99   500.000    3.448E+02    1.8149446E+06   -1.7365483E+02   -2.5628200E+04    1.7256993E+06    1.7364835E+02    1.8149446E+06
   -4.98   500.000    3.440E+02    1.8026939E+06   -2.1980866E+02   -2.0488650E+04    1.7173122E+06    2.1980172E+02    1.8026940E+06
   -4.97   500.000    3.432E+02    1.7852530E+06   -2.2890324E+02   -1.5702051E+04    1.7050924E+06    2.2889581E+02    1.7852530E+06
   -4.96   500.000    3.425E+02    1.7637001E+06   -1.7663637E+02   -1.1401167E+04    1.6894634E+06    1.7662840E+02    1.7637001E+06
   -4.95   500.000    3.417E+02    1.7391797E+06   -5.0065136E+01   -7.6316477E+03    1.6709308E+06    5.0056561E+01    1.7391797E+06
   -4.94   500.000    3.410E+02    1.7127653E+06    1.5095233E+02   -4.3693436E+03    1.6500406E+06   -1.5096161E+02    1.7127653E+06
   -4.93   500.000    3.402E+02    1.6853434E+06    4.1497671E+02   -1.5488325E+03    1.6273280E+06   -4.1498681E+02    1.6853434E+06
   -4.92   500.000    3.395E+02    1.6575374E+06    7.2232896E+02    9.0732073E+02    1.6032584E+06   -7.2234000E+02    1.6575375E+06
   -4.91   500.000    3.387E+02    1.6296786E+06    1.0492785E+03    3.0661588E+03    1.5781697E+06   -1.0492907E+03    1.6296786E+06
   -4.90   500.000    3.380E+02    1.6018244E+06    1.3717370E+03    4.9719016E+03    1.5522322E+06   -1.3717503E+03    1.6018245E+06
   -4.89   500.000    3.372E+02    1.5738149E+06    1.6676988E+03    6.6430382E+03    1.5254416E+06   -1.6677135E+03    1.5738149E+06
   -4.88   500.000    3.365E+02    1.5453513E+06    1.9184924E+03    8.0766507E+03    1.4976503E+06   -1.9185084E+03    1.5453513E+06
   -4.87   500.000    3.357E+02    1.5160800E+06    2.1094456E+03    9.2570631E+03    1.4686308E+06   -2.1094629E+03    1.5160800E+06
   -4.86   500.000    3.350E+02    1.4856659E+06    2.2305576E+03    1.0165761E+04    1.4381481E+06   -2.2305760E+03    1.4856659E+06
   -4.85   500.000    3.342E+02    1.4538446E+06    2.2773510E+03    1.0789703E+04    1.4060220E+06   -2.2773704E+03    1.4538446E+06
   -4.84   500.000    3.335E+02    1.4204483E+06    2.2516249E+03    1.1125927E+04    1.3721616E+06   -2.2516449E+03    1.4204483E+06
   -4.83   500.000    3.328E+02    1.3854051E+06    2.1616355E+03    1.1181909E+04    1.3365686E+06   -2.1616559E+03    1.3854051E+06
   -4.82   500.000    3.321E+02    1.3487190E+06    2.0213516E+03    1.0973075E+04    1.2993138E+06   -2.0213721E+03    1.3487190E+06
   -4.81   500.000    3.314E+02    1.3104381E+06    1.8487231E+03    1.0520200E+04    1.2605037E+06   -1.8487434E+03    1.3104381E+06
   -4.80   500.000    3.308E+02    1.2706224E+06    1.6631867E+03    9.8491422E+03    1.2202500E+06   -1.6632066E+03    1.2706225E+06
   -4.79   500.000    3.302E+02    1.2293188E+06    1.4828194E+03    8.9932458E+03    1.1786524E+06   -1.4828387E+03    1.2293188E+06
   -4.78   500.000    3.295E+02    1.1865470E+06    1.3216393E+03    7.9960910E+03    1.1357965E+06   -1.3216582E+03    1.1865470E+06
   -4.77   500.000    3.290E+02    1.1423006E+06    1.1876093E+03    6.9111610E+03    1.0917607E+06   -1.1876276E+03    1.1423006E+06
   -4.76   500.000    3.284E+02    1.0965603E+06    1.0818797E+03    5.7964639E+03    1.0466247E+06   -1.0818977E+03    1.0965603E+06
   -4.75   500.000    3.278E+02    1.0493216E+06    9.9960347E+02    4.7052673E+03    1.0004761E+06   -9.9962107E+02    1.0493216E+06
   -4.74   500.000    3.273E+02    1.0006311E+06    9.3217949E+02    3.6766137E+03    9.5341702E+05   -9.3219675E+02    1.0006311E+06
   -4.73   500.000    3.268E+02    9.5062430E+05    8.7021065E+02    2.7295327E+03    9.0557465E+05   -8.7022757E+02    9.5062431E+05
   -4.72   500.000    3.263E+02    8.9955284E+05    8.0613460E+02    1.8629659E+03    8.5711774E+05   -8.0615113E+02    8.9955284E+05
   -4.71   500.000    3.259E+02    8.4778990E+05    7.3567058E+02    1.0608142E+03    8.0827580E+05   -7.3568663E+02    8.4778991E+05
   -4.70   500.000    3.254E+02    7.9580965E+05    6.5783971E+02    2.9972280E+02    7.5935097E+05   -6.5785518E+02    7.9580965E+05
   -4.69   500.000    3.250E+02    7.4414349E+05    5.7397879E+02   -4.4314827E+02    7.1071319E+05   -5.7399355E+02    7.4414350E+05
   -4.68   500.000    3.246E+02    6.9332453E+05    4.8649999E+02   -1.1844090E+03    6.6277426E+05   -4.8651394E+02    6.9332454E+05
   -4.67   500.000    3.242E+02    6.4383464E+05    3.9803952E+02   -1.9316785E+03    6.1594683E+05   -3.9805256E+02    6.4383465E+05
   -4.66   500.000    3.238E+02    5.9606810E+05    3.1125020E+02   -2.6836374E+03    5.7060170E+05   -3.1126228E+02    5.9606810E+05
   -4.65   500.000    3.234E+02    5.5031928E+05    2.2908775E+02   -3.4320522E+03    5.2703874E+05   -2.2909884E+02    5.5031929E+05
   -4.64   500.000    3.231E+02    5.0679382E+05    1.5520194E+02   -4.1646599E+03    4.8548042E+05   -1.5521205E+02    5.0679383E+05
   -4.63   500.000    3.227E+02    4.6563410E+05    9.4031613E+01   -4.8679217E+03    4.4608612E+05   -9.4040764E+01    4.6563411E+05
   -4.62   500.000    3.223E+02    4.2694682E+05    5.0380288E+01   -5.5290182E+03    4.0897735E+05   -5.0388522E+01    4.2694684E+05
   -4.61   500.000    3.220E+02    3.9082224E+05    2.8524619E+01   -6.1368538E+03    3.7426161E+05   -2.8531982E+01    3.9082226E+05
   -4.60   500.000    3.216E+02    3.5734102E+05    3.1153768E+01   -6.6821294E+03    3.4204696E+05   -3.1160311E+01    3.5734103E+05
   -4.59   500.000    3.212E+02    3.2657090E+05    5.8534903E+01   -7.1567306E+03    3.1244583E+05   -5.8540677E+01    3.2657092E+05
   -4.58   500.000    3.208E+02    2.9855890E+05    1.0820881E+02   -7.5528149E+03    2.8557107E+05   -1.0821387E+02    2.9855891E+05
   -4.57   500.000    3.204E+02    2.7332429E+05    1.7530353E+02   -7.8620692E+03    2.6152865E+05   -1.7530792E+02    2.7332431E+05
   -4.56   500.000    3.200E+02    2.5085558E+05    2.5333483E+02   -8.0755546E+03    2.4040946E+05   -2.5333862E+02    2.5085560E+05
   -4.55   500.000    3.195E+02    2.3111120E+05    3.3524041E+02   -8.1843526E+03    2.2228127E+05   -3.3524364E+02    2.3111121E+05
   -4.54   500.000    3.190E+02    2.1402244E+05    4.1439590E+02   -8.1809307E+03    2.0718007E+05   -4.1439864E+02    2.1402246E+05
   -4.53   500.000    3.185E+02    1.9949668E+05    4.8544274E+02   -8.0609079E+03    1.9510029E+05   -4.8544505E+02    1.9949670E+05
   -4.52   500.000    3.179E+02    1.8742025E+05    5.4484811E+02   -7.8247587E+03    1.8598439E+05   -5.4485004E+02    1.8742026E+05
   -4.51   500.000    3.173E+02    1.7766165E+05    5.9116872E+02   -7.4789540E+03    1.7971334E+05   -5.9117032E+02    1.7766167E+05
   -4.50   500.000    3.166E+02    1.7007616E+05    6.2500349E+02   -7.0361012E+03    1.7610069E+05   -6.2500480E+02    1.7007617E+05
   -4.49   500.000    3.160E+02    1.6451159E+05    6.4862915E+02   -6.5138584E+03    1.7489241E+05   -6.4863021E+02    1.6451160E+05
   -4.48   500.000    3.152E+02    1.6081417E+05    6.6534754E+02   -5.9327885E+03    1.7577404E+05   -6.6534839E+02    1.6081418E+05
   -4.47   500.000    3.144E+02    1.5883234E+05    6.7863717E+02   -5.3137723E+03    1.7838505E+05   -6.7863783E+02    1.5883235E+05
   -4.46   500.000    3.136E+02    1.5841693E+05    6.9126805E+02   -4.6758996E+03    1.8233908E+05   -6.9126855E+02    1.5841693E+05
   -4.45   500.000    3.127E+02    1.5941767E+05    7.0457564E+02   -4.0356789E+03    1.8724760E+05   -7.0457602E+02    1.5941768E+05
   -4.44   500.000    3.118E+02    1.6167705E+05    7.1807136E+02   -3.4078820E+03    1.9274349E+05   -7.1807165E+02    1.6167705E+05
   -4.43   500.000    3.108E+02    1.6502344E+05    7.2949318E+02   -2.8075569E+03    1.9850053E+05   -7.2949341E+02    1.6502344E+05
   -4.42   500.000    3.098E+02    1.6926541E+05    7.3528937E+02   -2.2520776E+03    2.0424497E+05   -7.3528960E+02    1.6926541E+05
   -4.41   500.000    3.086E+02    1.7418842E+05    7.3141843E+02   -1.7619379E+03    2.0975726E+05   -7.3141868E+02    1.7418842E+05
   -4.40   500.000    3.074E+02    1.7955447E+05    7.1427083E+02   -1.3594577E+03    2.1486400E+05   -7.1427115E+02    1.7955447E+05
   -4.39   500.000    3.061E+02    1.8510489E+05    6.8149257E+02   -1.0654666E+03    2.1942341E+05   -6.8149298E+02    1.8510488E+05
   -4.38   500.000    3.047E+02    1.9056627E+05    6.3251590E+02   -8.9493693E+02    2.2330886E+05   -6.3251642E+02    1.9056626E+05
   -4.37   500.000    3.031E+02    1.9565914E+05    5.6867364E+02   -8.5305710E+02    2.2639548E+05   -5.6867429E+02    1.9565913E+05
   -4.36   500.000    3.014E+02    2.0010903E+05    4.9287856E+02   -9.3313456E+02    2.2855385E+05   -4.9287932E+02    2.0010902E+05
   -4.35   500.000    2.995E+02    2.0365928E+05    4.0897329E+02   -1.1170712E+03    2.2965241E+05   -4.0897415E+02    2.0365927E+05
   -4.34   500.000    2.974E+02    2.0608477E+05    3.2096317E+02   -1.3782637E+03    2.2956768E+05   -3.2096411E+02    2.0608476E+05
   -4.33   500.000    2.951E+02    2.0720570E+05    2.3238610E+02   -1.6860486E+03    2.2819946E+05   -2.3238709E+02    2.0720569E+05
   -4.32   500.000    2.926E+02    2.0690039E+05    1.4601134E+02   -2.0105034E+03    2.2548690E+05   -1.4601235E+02    2.0690039E+05
   -4.31   500.000    2.900E+02    2.0511588E+05    6.3900261E+01   -2.3265345E+03    2.2142211E+05   -6.3901254E+01    2.0511587E+05
   -4.30   500.000    2.871E+02    2.0187480E+05   -1.2319431E+01   -2.6165376E+03    2.1605898E+05    1.2318487E+01    2.0187479E+05
   -4.29   500.000    2.840E+02    1.9727740E+05   -8.1213549E+01   -2.8713266E+03    2.0951628E+05    8.1212690E+01    1.9727739E+05
   -4.28   500.000    2.808E+02    1.9149760E+05   -1.4153339E+02   -3.0894019E+03    2.0197515E+05    1.4153266E+02    1.9149759E+05
   -4.27   500.000    2.774E+02    1.8477296E+05   -1.9246890E+02   -3.2749583E+03    1.9367115E+05    1.9246832E+02    1.8477296E+05
   -4.26   500.000    2.738E+02    1.7738945E+05   -2.3401343E+02   -3.4352772E+03    1.8488170E+05    2.3401304E+02    1.7738944E+05
   -4.25   500.000    2.702E+02    1.6966255E+05   -2.6721721E+02   -3.5782207E+03    1.7590986E+05    2.6721703E+02    1.6966254E+05
   -4.24   500.000    2.665E+02    1.6191699E+05   -2.9417509E+02   -3.7104109E+03    1.6706623E+05    2.9417516E+02    1.6191698E+05
   -4.23   500.000    2.627E+02    1.5446741E+05   -3.1774770E+02   -3.8363863E+03    1.5865097E+05    3.1774802E+02    1.5446740E+05
   -4.22   500.000    2.588E+02    1.4760168E+05   -3.4114845E+02   -3.9586858E+03    1.5093776E+05    3.4114901E+02    1.4760167E+05
   -4.21   500.000    2.549E+02    1.4156820E+05   -3.6757193E+02   -4.0785501E+03    1.4416116E+05    3.6757272E+02    1.4156819E+05
   -4.20   500.000    2.510E+02    1.3656738E+05   -3.9998746E+02   -4.1968120E+03    1.3850792E+05    3.9998847E+02    1.3656737E+05
   -4.19   500.000    2.470E+02    1.3274703E+05   -4.4112671E+02   -4.3145835E+03    1.3411211E+05    4.4112789E+02    1.3274703E+05
   -4.18   500.000    2.430E+02    1.3020115E+05   -4.9361715E+02   -4.4335042E+03    1.3105376E+05    4.9361846E+02    1.3020115E+05
   -4.17   500.000    2.390E+02    1.2897168E+05   -5.6018300E+02   -4.5555288E+03    1.2936038E+05    5.6018441E+02    1.2897167E+05
   -4.16   500.000    2.348E+02    1.2905331E+05   -6.4384087E+02   -4.6824267E+03    1.2901109E+05    6.4384233E+02    1.2905331E+05
   -4.15   500.000    2.307E+02    1.3040159E+05   -7.4802467E+02   -4.8152844E+03    1.2994344E+05    7.4802615E+02    1.3040159E+05
   -4.14   500.000    2.264E+02    1.3294411E+05   -8.7656424E+02   -4.9542963E+03    1.3206250E+05    8.7656572E+02    1.3294411E+05
   -4.13   500.000    2.222E+02    1.3659404E+05   -1.0334275E+03   -5.0990065E+03    1.3525213E+05    1.0334289E+03    1.3659404E+05
   -4.12   500.000    2.178E+02    1.4126435E+05   -1.2221573E+03   -5.2489677E+03    1.3938715E+05    1.2221588E+03    1.4126435E+05
   -4.11   500.000    2.135E+02    1.4688044E+05   -1.4450220E+03   -5.4046051E+03    1.4434511E+05    1.4450235E+03    1.4688044E+05
   -4.10   500.000    2.091E+02    1.5338955E+05   -1.7020311E+03   -5.5679801E+03    1.5001633E+05    1.7020325E+03    1.5338956E+05
   -4.09   500.000    2.047E+02    1.6076546E+05   -1.9900760E+03   -5.7431809E+03    1.5631082E+05    1.9900775E+03    1.6076547E+05
   -4.08   500.000    2.004E+02    1.6900808E+05   -2.3024582E+03   -5.9362156E+03    1.6316156E+05    2.3024597E+03    1.6900808E+05
   -4.07   500.000    1.961E+02    1.7813797E+05   -2.6289295E+03   -6.1544617E+03    1.7052371E+05    2.6289311E+03    1.7813797E+05
   -4.06   500.000    1.918E+02    1.8818613E+05   -2.9561838E+03   -6.4058535E+03    1.7837018E+05    2.9561854E+03    1.8818613E+05
   -4.05   500.000    1.877E+02    1.9917985E+05   -3.2686112E+03   -6.6979764E+03    1.8668434E+05    3.2686127E+03    1.9917986E+05
   -4.04   500.000    1.837E+02    2.1112602E+05   -3.5491601E+03   -7.0370930E+03    1.9545123E+05    3.5491617E+03    2.1112602E+05
   -4.03   500.000    1.798E+02    2.2399382E+05   -3.7802977E+03   -7.4269616E+03    2.0464898E+05    3.7802992E+03    2.2399382E+05
   -4.02   500.000    1.761E+02    2.3769966E+05   -3.9451818E+03   -7.8672619E+03    2.1424176E+05    3.9451832E+03    2.3769966E+05
   -4.01   500.000    1.726E+02    2.5209630E+05   -4.0291380E+03   -8.3515841E+03    2.2417440E+05    4.0291393E+03    2.5209630E+05
   -4.00   500.000    1.692E+02    2.6696776E+05   -4.0213502E+03   -8.8652332E+03    2.3436765E+05    4.0213513E+03    2.6696776E+05
   -3.99   500.000    1.660E+02    2.8203048E+05   -3.9164576E+03   -9.3834749E+03    2.4471264E+05    3.9164585E+03    2.8203048E+05
   -3.98   500.000    1.630E+02    2.9694088E+05   -3.7156550E+03   -9.8711602E+03    2.5506411E+05    3.7156557E+03    2.9694087E+05
   -3.97   500.000    1.602E+02    3.1131011E+05   -3.4269949E+03   -1.0284740E+04    2.6523475E+05    3.4269955E+03    3.1131011E+05
   -3.96   500.000    1.576E+02    3.2472729E+05   -3.0648255E+03   -1.0577269E+04    2.7499538E+05    3.0648259E+03    3.2472729E+05
   -3.95   500.000    1.551E+02    3.3679164E+05   -2.6485334E+03   -1.0706013E+04    2.8408607E+05    2.6485337E+03    3.3679164E+05
   -3.94   500.000    1.528E+02    3.4715179E+05   -2.2008945E+03   -1.0640910E+04    2.9224089E+05    2.2008946E+03    3.4715178E+05
   -3.93   500.000    1.507E+02    3.5554642E+05   -1.7463329E+03   -1.0371187E+04    2.9922344E+05    1.7463329E+03    3.5554642E+05
   -3.92   500.000    1.487E+02    3.6183787E+05   -1.3092980E+03   -9.9075398E+03    3.0486481E+05    1.3092978E+03    3.6183786E+05
   -3.91   500.000    1.469E+02    3.6602932E+05   -9.1283548E+02   -9.2789603E+03    3.0909311E+05    9.1283509E+02    3.6602932E+05
   -3.90   500.000    1.452E+02    3.6826015E+05   -5.7732279E+02   -8.5257267E+03    3.1194552E+05    5.7732223E+02    3.6826015E+05
   -3.89   500.000    1.435E+02    3.6877922E+05   -3.1931852E+02   -7.6919547E+03    3.1355948E+05    3.1931778E+02    3.6877922E+05
   -3.88   500.000    1.420E+02    3.6790293E+05   -1.5053782E+02   -6.8211022E+03    3.1414648E+05    1.5053693E+02    3.6790293E+05
   -3.87   500.000    1.405E+02    3.6596878E+05   -7.7062441E+01   -5.9557896E+03    3.1395687E+05    7.7061444E+01    3.6596878E+05
   -3.86   500.000    1.391E+02    3.6329589E+05   -9.8934381E+01   -5.1404866E+03    3.1324551E+05    9.8933316E+01    3.6329589E+05
   -3.85   500.000    1.378E+02    3.6016080E+05   -2.1023086E+02   -4.4238532E+03    3.1224600E+05    2.1022977E+02    3.6016080E+05
   -3.84   500.000    1.365E+02    3.5679143E+05   -3.9961085E+02   -3.8578888E+03    3.1115779E+05    3.9960980E+02    3.5679143E+05
   -3.83   500.000    1.353E+02    3.5337590E+05   -6.5122934E+02   -3.4931137E+03    3.1014591E+05    6.5122837E+02    3.5337590E+05
   -3.82   500.000    1.341E+02    3.5007872E+05   -9.4587190E+02   -3.3713116E+03    3.0934943E+05    9.4587104E+02    3.5007871E+05
   -3.81   500.000    1.329E+02    3.4705520E+05   -1.2621656E+03   -3.5185197E+03    3.0889273E+05    1.2621649E+03    3.4705520E+05
   -3.80   500.000    1.317E+02    3.4445732E+05   -1.5777717E+03   -3.9406495E+03    3.0889328E+05    1.5777711E+03    3.4445732E+05
   -3.79   500.000    1.306E+02    3.4242843E+05   -1.8705626E+03   -4.6230065E+03    3.0946200E+05    1.8705622E+03    3.4242842E+05
   -3.78   500.000    1.294E+02    3.4108949E+05   -2.1198871E+03   -5.5339012E+03    3.1069570E+05    2.1198867E+03    3.4108949E+05
   -3.77   500.000    1.283E+02    3.4052250E+05   -2.3080117E+03   -6.6318086E+03    3.1266407E+05    2.3080114E+03    3.4052250E+05
   -3.76   500.000    1.272E+02    3.4075675E+05   -2.4216438E+03   -7.8748566E+03    3.1539500E+05    2.4216436E+03    3.4075675E+05
   -3.75   500.000    1.262E+02    3.4176199E+05   -2.4531649E+03   -9.2305449E+03    3.1886160E+05    2.4531648E+03    3.4176199E+05
   -3.74   500.000    1.251E+02    3.4344982E+05   -2.4010546E+03   -1.0682810E+04    3.2297378E+05    2.4010544E+03    3.4344982E+05
   -3.73   500.000    1.240E+02    3.4568336E+05   -2.2691238E+03   -1.2233630E+04    3.2757713E+05    2.2691237E+03    3.4568336E+05
   -3.72   500.000    1.230E+02    3.4829449E+05   -2.0645846E+03   -1.3897818E+04    3.3246262E+05    2.0645844E+03    3.4829449E+05
   -3.71   500.000    1.219E+02    3.5110717E+05   -1.7954675E+03   -1.5692090E+04    3.3738967E+05    1.7954673E+03    3.5110717E+05
   -3.70   500.000    1.209E+02    3.5396391E+05   -1.4682147E+03   -1.7621717E+04    3.4212169E+05    1.4682144E+03    3.5396391E+05
   -3.69   500.000    1.198E+02    3.5675044E+05   -1.0862475E+03   -1.9668977E+04    3.4646816E+05    1.0862471E+03    3.5675044E+05
   -3.68   500.000    1.188E+02    3.5941270E+05   -6.4993292E+02   -2.1786923E+04    3.5032229E+05    6.4993253E+02    3.5941270E+05
   -3.67   500.000    1.177E+02    3.6196131E+05   -1.5782246E+02   -2.3900274E+04    3.5368309E+05    1.5782195E+02    3.6196131E+05
   -3.66   500.000    1.167E+02    3.6446225E+05    3.9142314E+02   -2.5913268E+04    3.5665419E+05   -3.9142379E+02    3.6446225E+05
   -3.65   500.000    1.156E+02    3.6701662E+05    9.9715170E+02   -2.7722755E+04    3.5941853E+05   -9.9715254E+02    3.6701662E+05
   -3.64   500.000    1.146E+02    3.6973500E+05    1.6554108E+03   -2.9233784E+04    3.6219505E+05   -1.6554119E+03    3.6973500E+05
   -3.63   500.000    1.135E+02    3.7271234E+05    2.3583543E+03   -3.0374529E+04    3.6518738E+05   -2.3583555E+03    3.7271234E+05
   -3.62   500.000    1.125E+02    3.7600762E+05    3.0941558E+03   -3.1107646E+04    3.6853575E+05   -3.0941573E+03    3.7600762E+05
   -3.61   500.000    1.114E+02    3.7963012E+05    3.8470719E+03   -3.1436000E+04    3.7228254E+05   -3.8470736E+03    3.7963012E+05
   -3.60   500.000    1.103E+02    3.8353296E+05    4.5973919E+03   -3.1401918E+04    3.7635875E+05   -4.5973937E+03    3.8353297E+05
   -3.59   500.000    1.092E+02    3.8761445E+05    5.3213090E+03   -3.1080286E+04    3.8059574E+05   -5.3213109E+03    3.8761446E+05
   -3.58   500.000    1.081E+02    3.9172781E+05    5.9911016E+03   -3.0566800E+04    3.8476061E+05   -5.9911036E+03    3.9172781E+05
   -3.57   500.000    1.070E+02    3.9569980E+05    6.5762244E+03   -2.9963392E+04    3.8860802E+05   -6.5762265E+03    3.9569980E+05
   -3.56   500.000    1.059E+02    3.9935727E+05    7.0457909E+03   -2.9363362E+04    3.9193589E+05   -7.0457929E+03    3.9935728E+05
   -3.55   500.000    1.048E+02    4.0255816E+05    7.3724362E+03   -2.8838961E+04    3.9463070E+05   -7.3724383E+03    4.0255817E+05
   -3.54   500.000    1.036E+02    4.0522118E+05    7.5368650E+03   -2.8433888E+04    3.9669086E+05   -7.5368670E+03    4.0522119E+05
   -3.53   500.000    1.025E+02    4.0734679E+05    7.5318387E+03   -2.8162207E+04    3.9822355E+05   -7.5318406E+03    4.0734680E+05
   -3.52   500.000    1.014E+02    4.0902274E+05    7.3642619E+03   -2.8013641E+04    3.9941812E+05   -7.3642638E+03    4.0902275E+05
   -3.51   500.000    1.002E+02    4.1041076E+05    7.0545004E+03   -2.7963455E+04    4.0050548E+05   -7.0545022E+03    4.1041077E+05
   -3.50   500.000    9.911E+01    4.1171646E+05    6.6329564E+03   -2.7983937E+04    4.0171491E+05   -6.6329582E+03    4.1171647E+05
   -3.49   500.000    9.798E+01    4.1314978E+05    6.1348559E+03   -2.8054326E+04    4.0323784E+05   -6.1348577E+03    4.1314978E+05
   -3.48   500.000    9.685E+01    4.1488612E+05    5.5947334E+03   -2.8167057E+04    4.0520399E+05   -5.5947352E+03    4.1488612E+05
   -3.47   500.000    9.571E+01    4.1703737E+05    5.0420311E+03   -2.8329681E+04    4.0767080E+05   -5.0420329E+03    4.1703738E+05
   -3.46   500.000    9.457E+01    4.1963824E+05    4.4986586E+03   -2.8563024E+04    4.1062406E+05   -4.4986605E+03    4.1963824E+05
   -3.45   500.000    9.343E+01    4.2264813E+05    3.9786380E+03   -2.8896501E+04    4.1398689E+05   -3.9786400E+03    4.2264814E+05
   -3.44   500.000    9.227E+01    4.2596519E+05    3.4893680E+03   -2.9361307E+04    4.1763413E+05   -3.4893701E+03    4.2596519E+05
   -3.43   500.000    9.111E+01    4.2944678E+05    3.0337189E+03   -2.9982132E+04    4.2140978E+05   -3.0337212E+03    4.2944678E+05
   -3.42   500.000    8.994E+01    4.3293138E+05    2.6120817E+03   -3.0768572E+04    4.2514526E+05   -2.6120842E+03    4.3293138E+05
   -3.41   500.000    8.875E+01    4.3625825E+05    2.2236344E+03   -3.1708081E+04    4.2867659E+05   -2.2236371E+03    4.3625824E+05
   -3.40   500.000    8.755E+01    4.3928314E+05    1.8664499E+03   -3.2762650E+04    4.3185944E+05   -1.8664528E+03    4.3928314E+05
   -3.39   500.000    8.633E+01    4.4189004E+05    1.5366223E+03   -3.3870698E+04    4.3458203E+05   -1.5366254E+03    4.4189003E+05
   -3.38   500.000    8.508E+01    4.4399976E+05    1.2271334E+03   -3.4954255E+04    4.3677663E+05   -1.2271368E+03    4.4399976E+05
   -3.37   500.000    8.381E+01    4.4557707E+05    9.2742620E+02   -3.5930006E+04    4.3843010E+05   -9.2742978E+02    4.4557707E+05
   -3.36   500.000    8.250E+01    4.4663697E+05    6.2441652E+02   -3.6721608E+04    4.3959279E+05   -6.2442029E+02    4.4663696E+05
   -3.35   500.000    8.116E+01    4.4724993E+05    3.0502699E+02   -3.7270342E+04    4.4038318E+05   -3.0503093E+02    4.4724993E+05
   -3.34   500.000    7.978E+01    4.4754384E+05   -4.0388725E+01   -3.7541482E+04    4.4098495E+05    4.0384634E+01    4.4754384E+05
   -3.33   500.000    7.837E+01    4.4769934E+05   -4.1478711E+02   -3.7524798E+04    4.4163379E+05    4.1478289E+02    4.4769933E+05
   -3.32   500.000    7.690E+01    4.4793588E+05   -8.1234334E+02   -3.7229157E+04    4.4259321E+05    8.1233899E+02    4.4793587E+05
   -3.31   500.000    7.539E+01    4.4848818E+05   -1.2181069E+03   -3.6672763E+04    4.4412123E+05    1.2181025E+03    4.4848817E+05
   -3.30   500.000    7.383E+01    4.4957559E+05   -1.6094749E+03   -3.5871927E+04    4.4643186E+05    1.6094704E+03    4.4957559E+05
   -3.29   500.000    7.222E+01    4.5136982E+05   -1.9591948E+03   -3.4831937E+04    4.4965700E+05    1.9591903E+03    4.5136982E+05
   -3.28   500.000    7.056E+01    4.5396747E+05   -2.2394454E+03   -3.3543300E+04    4.5381629E+05    2.2394410E+03    4.5396746E+05
   -3.27   500.000    6.884E+01    4.5737360E+05   -2.4264210E+03   -3.1985203E+04    4.5880304E+05    2.4264167E+03    4.5737359E+05
   -3.26   500.000    6.708E+01    4.6150037E+05   -2.5046442E+03   -3.0135631E+04    4.6439245E+05    2.5046401E+03    4.6150037E+05
   -3.25   500.000    6.527E+01    4.6618126E+05   -2.4699980E+03   -2.7985018E+04    4.7027336E+05    2.4699943E+03    4.6618126E+05
   -3.24   500.000    6.340E+01    4.7119765E+05   -2.3304558E+03   -2.5548765E+04    4.7609712E+05    2.3304525E+03    4.7119765E+05
   -3.23   500.000    6.150E+01    4.7631127E+05   -2.1039545E+03   -2.2874320E+04    4.8153139E+05    2.1039518E+03    4.7631127E+05
   -3.22   500.000    5.955E+01    4.8129536E+05   -1.8137744E+03   -2.0040720E+04    4.8630523E+05    1.8137723E+03    4.8129536E+05
   -3.21   500.000    5.756E+01    4.8595892E+05   -1.4827548E+03   -1.7151319E+04    4.9023580E+05    1.4827534E+03    4.8595892E+05
   -3.20   500.000    5.554E+01    4.9016103E+05   -1.1281632E+03   -1.4322564E+04    4.9323411E+05    1.1281626E+03    4.9016103E+05
   -3.19   500.000    5.350E+01    4.9381535E+05   -7.5873872E+02   -1.1672318E+04    4.9529358E+05    7.5873888E+02    4.9381535E+05
   -3.18   500.000    5.144E+01    4.9688544E+05   -3.7456300E+02   -9.3103933E+03    4.9646805E+05    3.7456385E+02    4.9688544E+05
   -3.17   500.000    4.937E+01    4.9937272E+05    3.0562443E+01   -7.3324366E+03    4.9684519E+05   -3.0560966E+01    4.9937273E+05
   -3.16   500.000    4.731E+01    5.0129898E+05    4.6519723E+02   -5.8167736E+03    4.9652003E+05   -4.6519524E+02    5.0129898E+05
   -3.15   500.000    4.527E+01    5.0268685E+05    9.3596789E+02   -4.8229531E+03    4.9557201E+05   -9.3596551E+02    5.0268685E+05
   -3.14   500.000    4.325E+01    5.0354302E+05    1.4439415E+03   -4.3906622E+03    4.9404923E+05   -1.4439389E+03    5.0354302E+05
   -3.13   500.000    4.128E+01    5.0384860E+05    1.9824567E+03   -4.5382174E+03    4.9196354E+05   -1.9824540E+03    5.0384859E+05
   -3.12   500.000    3.935E+01    5.0355936E+05    2.5369207E+03   -5.2605803E+03    4.8929825E+05   -2.5369180E+03    5.0355936E+05
   -3.11   500.000    3.749E+01    5.0261537E+05    3.0867486E+03   -6.5274164E+03    4.8602709E+05   -3.0867461E+03    5.0261537E+05
   -3.10   500.000    3.570E+01    5.0095573E+05    3.6091618E+03   -8.2819448E+03    4.8213800E+05   -3.6091596E+03    5.0095573E+05
   -3.09   500.000    3.398E+01    4.9853250E+05    4.0839725E+03   -1.0441259E+04    4.7765315E+05   -4.0839707E+03    4.9853250E+05
   -3.08   500.000    3.234E+01    4.9531808E+05    4.4979935E+03   -1.2898605E+04    4.7263703E+05   -4.4979921E+03    4.9531808E+05
   -3.07   500.000    3.078E+01    4.9130316E+05    4.8476569E+03   -1.5527997E+04    4.6718890E+05   -4.8476561E+03    4.9130315E+05
   -3.06   500.000    2.930E+01    4.8648657E+05    5.1390118E+03   -1.8191506E+04    4.6142262E+05   -5.1390115E+03    4.8648657E+05
   -3.05   500.000    2.790E+01    4.8086206E+05    5.3852708E+03   -2.0749514E+04    4.5544116E+05   -5.3852711E+03    4.8086205E+05
   -3.04   500.000    2.659E+01    4.7440811E+05    5.6029548E+03   -2.3073532E+04    4.4931516E+05   -5.6029557E+03    4.7440811E+05
   -3.03   500.000    2.535E+01    4.6708564E+05    5.8079423E+03   -2.5059973E+04    4.4307108E+05   -5.8079437E+03    4.6708564E+05
   -3.02   500.000    2.418E+01    4.5884429E+05    6.0123429E+03   -2.6641675E+04    4.3669009E+05   -6.0123448E+03    4.5884429E+05
   -3.01   500.000    2.309E+01    4.4963489E+05    6.2224681E+03   -2.7793394E+04    4.3011444E+05   -6.2224705E+03    4.4963488E+05
   -3.00   500.000    2.206E+01    4.3942407E+05    6.4377681E+03   -2.8528861E+04    4.2325752E+05   -6.4377710E+03    4.3942407E+05
   -2.99   500.000    2.110E+01    4.2820818E+05    6.6506219E+03   -2.8890103E+04    4.1601564E+05   -6.6506251E+03    4.2820817E+05
   -2.98   500.000    2.019E+01    4.1602533E+05    6.8471090E+03   -2.8933016E+04    4.0828255E+05   -6.8471125E+03    4.1602532E+05
   -2.97   500.000    1.934E+01    4.0296587E+05    7.0090003E+03   -2.8714392E+04    3.9996844E+05   -7.0090040E+03    4.0296586E+05
   -2.96   500.000    1.854E+01    3.8918073E+05    7.1169763E+03   -2.8284207E+04    3.9102274E+05   -7.1169800E+03    3.8918072E+05
   -2.95   500.000    1.779E+01    3.7488557E+05    7.1546065E+03   -2.7683954E+04    3.8145666E+05   -7.1546102E+03    3.7488557E+05
   -2.94   500.000    1.708E+01    3.6035774E+05    7.1121933E+03   -2.6949136E+04    3.7135812E+05   -7.1121970E+03    3.6035773E+05
   -2.93   500.000    1.641E+01    3.4592343E+05    6.9894626E+03   -2.6112910E+04    3.6089297E+05   -6.9894662E+03    3.4592342E+05
   -2.92   500.000    1.578E+01    3.3193521E+05    6.7963771E+03   -2.5208437E+04    3.5029058E+05   -6.7963806E+03    3.3193520E+05
   -2.91   500.000    1.518E+01    3.1874282E+05    6.5519061E+03   -2.4268969E+04    3.3981740E+05   -6.5519094E+03    3.1874281E+05
   -2.90   500.000    1.462E+01    3.0666215E+05    6.2811599E+03   -2.3326239E+04    3.2974551E+05   -6.2811630E+03    3.0666214E+05
   -2.89   500.000    1.409E+01    2.9594746E+05    6.0116536E+03   -2.2408711E+04    3.2032310E+05   -6.0116565E+03    2.9594745E+05
   -2.88   500.000    1.359E+01    2.8677032E+05    5.7695095E+03   -2.1541162E+04    3.1175135E+05   -5.7695121E+03    2.8677032E+05
   -2.87   500.000    1.311E+01    2.7920735E+05    5.5762200E+03   -2.0746239E+04    3.0416982E+05   -5.5762222E+03    2.7920735E+05
   -2.86   500.000    1.266E+01    2.7323705E+05    5.4463094E+03   -2.0047477E+04    2.9765119E+05   -5.4463112E+03    2.7323705E+05
   -2.85   500.000    1.224E+01    2.6874653E+05    5.3859993E+03   -1.9472500E+04    2.9220550E+05   -5.3860008E+03    2.6874652E+05
   -2.84   500.000    1.183E+01    2.6554825E+05    5.3928635E+03   -1.9055137E+04    2.8779365E+05   -5.3928647E+03    2.6554824E+05
   -2.83   500.000    1.145E+01    2.6340652E+05    5.4564332E+03   -1.8835607E+04    2.8434765E+05   -5.4564342E+03    2.6340652E+05
   -2.82   500.000    1.109E+01    2.6207109E+05    5.5596938E+03   -1.8858409E+04    2.8179293E+05   -5.5596945E+03    2.6207109E+05
   -2.81   500.000    1.075E+01    2.6131266E+05    5.6813112E+03   -1.9167814E+04    2.8006674E+05   -5.6813119E+03    2.6131266E+05
   -2.80   500.000    1.042E+01    2.6095326E+05    5.7982694E+03   -1.9801029E+04    2.7912750E+05   -5.7982701E+03    2.6095326E+05
   -2.79   500.000    1.011E+01    2.6088490E+05    5.8884761E+03   -2.0779508E+04    2.7895317E+05   -5.8884769E+03    2.6088490E+05
   -2.78   500.000    9.807E+00    2.6107252E+05    5.9329094E+03   -2.2099525E+04    2.7953018E+05   -5.9329104E+03    2.6107252E+05
   -2.77   500.000    9.520E+00    2.6154137E+05    5.9169957E+03   -2.3723749E+04    2.8083722E+05   -5.9169970E+03    2.6154137E+05
   -2.76   500.000    9.243E+00    2.6235238E+05    5.8310479E+03   -2.5575877E+04    2.8282825E+05   -5.8310495E+03    2.6235238E+05
   -2.75   500.000    8.975E+00    2.6357073E+05    5.6697401E+03   -2.7540162E+04    2.8541766E+05   -5.6697420E+03    2.6357073E+05
   -2.74   500.000    8.715E+00    2.6523275E+05    5.4307970E+03   -2.9467009E+04    2.8846884E+05   -5.4307993E+03    2.6523275E+05
   -2.73   500.000    8.462E+00    2.6731621E+05    5.1133737E+03   -3.1184739E+04    2.9178659E+05   -5.1133764E+03    2.6731621E+05
   -2.72   500.000    8.215E+00    2.6971829E+05    4.7168607E+03   -3.2516263E+04    2.9511488E+05   -4.7168636E+03    2.6971829E+05
   -2.71   500.000    7.973E+00    2.7224547E+05    4.2408234E+03   -3.3298210E+04    2.9814224E+05   -4.2408266E+03    2.7224547E+05
   -2.70   500.000    7.735E+00    2.7461775E+05    3.6863231E+03   -3.3399585E+04    3.0051694E+05   -3.6863264E+03    2.7461775E+05
   -2.69   500.000    7.501E+00    2.7648778E+05    3.0581140E+03   -3.2737357E+04    3.0187201E+05   -3.0581173E+03    2.7648778E+05
   -2.68   500.000    7.271E+00    2.7747210E+05    2.3666314E+03   -3.1287221E+04    3.0185650E+05   -2.3666346E+03    2.7747210E+05
   -2.67   500.000    7.044E+00    2.7718935E+05    1.6286933E+03   -2.9088275E+04    3.0016693E+05   -1.6286964E+03    2.7718935E+05
   -2.66   500.000    6.820E+00    2.7529856E+05    8.6648737E+02   -2.6240478E+04    2.9657225E+05   -8.6649020E+02    2.7529856E+05
   -2.65   500.000    6.601E+00    2.7153117E+05    1.0528685E+02   -2.2893926E+04    2.9092809E+05   -1.0528938E+02    2.7153117E+05
   -2.64   500.000    6.387E+00    2.6571223E+05   -6.2913807E+02   -1.9230306E+04    2.8317995E+05    6.2913589E+02    2.6571223E+05
   -2.63   500.000    6.178E+00    2.5776990E+05   -1.3125504E+03   -1.5439464E+04    2.7335844E+05    1.3125486E+03    2.5776991E+05
   -2.62   500.000    5.975E+00    2.4773517E+05   -1.9234208E+03   -1.1696566E+04    2.6157160E+05    1.9234195E+03    2.4773517E+05
   -2.61   500.000    5.779E+00    2.3573549E+05   -2.4435357E+03   -8.1458369E+03    2.4799842E+05    2.4435348E+03    2.3573549E+05
   -2.60   500.000    5.590E+00    2.2198556E+05   -2.8585657E+03   -4.8942237E+03    2.3288495E+05    2.8585652E+03    2.2198556E+05
   -2.59   500.000    5.411E+00    2.0677635E+05   -3.1589180E+03   -2.0138869E+03    2.1654162E+05    3.1589179E+03    2.0677635E+05
   -2.58   500.000    5.240E+00    1.9046178E+05   -3.3407717E+03    4.5097226E+02    1.9933790E+05    3.3407719E+03    1.9046178E+05
   -2.57   500.000    5.079E+00    1.7344142E+05   -3.4068558E+03    2.4778162E+03    1.8169076E+05    3.4068563E+03    1.7344142E+05
   -2.56   500.000    4.929E+00    1.5613841E+05   -3.3665030E+03    4.0624746E+03    1.6404554E+05    3.3665038E+03    1.5613841E+05
   -2.55   500.000    4.790E+00    1.3897368E+05   -3.2347606E+03    5.2183290E+03    1.4685095E+05    3.2347616E+03    1.3897368E+05
   -2.54   500.000    4.661E+00    1.2233945E+05   -3.0306829E+03    5.9758793E+03    1.3053203E+05    3.0306840E+03    1.2233945E+05
   -2.53   500.000    4.543E+00    1.0657583E+05   -2.7751786E+03    6.3809068E+03    1.1546604E+05    2.7751798E+03    1.0657583E+05
   -2.52   500.000    4.434E+00    9.1953935E+04   -2.4888570E+03    6.4907285E+03    1.0196472E+05    2.4888583E+03    9.1953936E+04
   -2.51   500.000    4.334E+00    7.8667328E+04   -2.1902430E+03    6.3691276E+03    9.0264583E+04    2.1902443E+03    7.8667328E+04
   -2.50   500.000    4.241E+00    6.6831783E+04   -1.8945772E+03    6.0809333E+03    8.0524623E+04    1.8945784E+03    6.6831783E+04
   -2.49   500.000    4.154E+00    5.6492035E+04   -1.6132599E+03    5.6870769E+03    7.2829530E+04    1.6132612E+03    5.6492034E+04
   -2.48   500.000    4.071E+00    4.7633284E+04   -1.3538653E+03    5.2406529E+03    6.7195568E+04    1.3538665E+03    4.7633284E+04
   -2.47   500.000    3.989E+00    4.0195174E+04   -1.1205716E+03    4.7842679E+03    6.3576486E+04    1.1205729E+03    4.0195174E+04
   -2.46   500.000    3.908E+00    3.4086191E+04   -9.1483061E+02    4.3487783E+03    6.1867455E+04    9.1483190E+02    3.4086190E+04
   -2.45   500.000    3.824E+00    2.9196938E+04   -7.3611237E+02    3.9533535E+03    6.1906294E+04    7.3611371E+02    2.9196938E+04
   -2.44   500.000    3.736E+00    2.5411299E+04   -5.8260865E+02    3.6066620E+03    6.3472818E+04    5.8261006E+02    2.5411299E+04
   -2.43   500.000    3.643E+00    2.2614969E+04   -4.5182148E+02    3.3088818E+03    6.6288632E+04    4.5182298E+02    2.2614969E+04
   -2.42   500.000    3.542E+00    2.0701212E+04   -3.4100746E+02    3.0542017E+03    7.0020648E+04    3.4100906E+02    2.0701212E+04
   -2.41   500.000    3.433E+00    1.9573896E+04   -2.4747580E+02    2.8334799E+03    7.4291526E+04    2.4747750E+02    1.9573896E+04
   -2.40   500.000    3.316E+00    1.9147955E+04   -1.6875703E+02    2.6367434E+03    7.8698920E+04    1.6875882E+02    1.9147955E+04
   -2.39   500.000    3.188E+00    1.9347526E+04   -1.0266931E+02    2.4552556E+03    8.2843069E+04    1.0267118E+02    1.9347526E+04
   -2.38   500.000    3.051E+00    2.0102144E+04   -4.7315164E+01    2.2829388E+03    8.6359541E+04    4.7317089E+01    2.0102144E+04
   -2.37   500.000    2.904E+00    2.1341680E+04   -1.0428866E+00    2.1170361E+03    8.8951685E+04    1.0448427E+00    2.1341680E+04
   -2.36   500.000    2.749E+00    2.2991026E+04    3.7595944E+01    1.9579985E+03    9.0416586E+04   -3.7593985E+01    2.2991027E+04
   -2.35   500.000    2.584E+00    2.4965842E+04    6.9869887E+01    1.8086915E+03    9.0659346E+04   -6.9867951E+01    2.4965843E+04
   -2.34   500.000    2.413E+00    2.7170770E+04    9.6862627E+01    1.6731140E+03    8.9693329E+04   -9.6860739E+01    2.7170771E+04
   -2.33   500.000    2.235E+00    2.9501303E+04    1.1944592E+02    1.5549163E+03    8.7627335E+04   -1.1944410E+02    2.9501305E+04
   -2.32   500.000    2.054E+00    3.1849845E+04    1.3824864E+02    1.4560541E+03    8.4643493E+04   -1.3824691E+02    3.1849847E+04
   -2.31   500.000    1.870E+00    3.4115615E+04    1.5364322E+02    1.3759072E+03    8.0970923E+04   -1.5364160E+02    3.4115617E+04
   -2.30   500.000    1.686E+00    3.6217054E+04    1.6576509E+02    1.3110805E+03    7.6860196E+04   -1.6576360E+02    3.6217057E+04
   -2.29   500.000    1.505E+00    3.8104664E+04    1.7457018E+02    1.2559168E+03    7.2562548E+04   -1.7456885E+02    3.8104666E+04
   -2.28   500.000    1.328E+00    3.9771912E+04    1.7992408E+02    1.2035425E+03    6.8316134E+04   -1.7992293E+02    3.9771915E+04
   -2.27   500.000    1.157E+00    4.1262078E+04    1.8170587E+02    1.1471108E+03    6.4339606E+04   -1.8170493E+02    4.1262081E+04
   -2.26   500.000    9.947E-01    4.2669582E+04    1.7990382E+02    1.0808842E+03    6.0831481E+04   -1.7990312E+02    4.2669586E+04
   -2.25   500.000    8.414E-01    4.4135305E+04    1.7467966E+02    1.0008980E+03    5.7972650E+04   -1.7467923E+02    4.4135309E+04
   -2.24   500.000    6.983E-01    4.5836494E+04    1.6638633E+02    9.0512989E+02    5.5929334E+04   -1.6638618E+02    4.5836499E+04
   -2.23   500.000    5.656E-01    4.7972805E+04    1.5553700E+02    7.9326955E+02    5.4854599E+04   -1.5553715E+02    4.7972811E+04
   -2.22   500.000    4.432E-01    5.0750715E+04    1.4273731E+02    6.6629125E+02    5.4887798E+04   -1.4273775E+02    5.0750722E+04
   -2.21   500.000    3.308E-01    5.4368752E+04    1.2860130E+02    5.2605325E+02    5.6152362E+04   -1.2860203E+02    5.4368760E+04
   -2.20   500.000    2.273E-01    5.9005536E+04    1.1367344E+02    3.7509217E+02    5.8752969E+04   -1.1367444E+02    5.9005544E+04
   -2.19   500.000    1.316E-01    6.4811806E+04    9.8373637E+01    2.1666003E+02    6.2773149E+04   -9.8374876E+01    6.4811816E+04
   -2.18   500.000    4.245E-02    7.1906550E+04    8.2973021E+01    5.4894121E+01    6.8273989E+04   -8.2974449E+01    7.1906561E+04
   -2.17   500.000   -4.153E-02    8.0376530E+04    6.7599033E+01   -1.0512368E+02    7.5294090E+04   -6.7600594E+01    8.0376543E+04
   -2.16   500.000   -1.217E-01    9.0278143E+04    5.2261906E+01   -2.5768186E+02    8.3850484E+04   -5.2263544E+01    9.0278157E+04
   -2.15   500.000   -1.994E-01    1.0164066E+05    3.6892350E+01   -3.9723752E+02    9.3939992E+04   -3.6894012E+01    1.0164068E+05
   -2.14   500.000   -2.756E-01    1.1447031E+05    2.1381212E+01   -5.1951671E+02    1.0554045E+05   -2.1382853E+01    1.1447033E+05
   -2.13   500.000   -3.516E-01    1.2875501E+05    5.6145019E+00   -6.2246905E+02    1.1861152E+05   -5.6161001E+00    1.2875503E+05
   -2.12   500.000   -4.280E-01    1.4446970E+05   -1.0500127E+01   -7.0657374E+02    1.3309514E+05    1.0498574E+01    1.4446972E+05
   -2.11   500.000   -5.057E-01    1.6158201E+05   -2.7017182E+01   -7.7423259E+02    1.4891665E+05    2.7015650E+01    1.6158203E+05
   -2.10   500.000   -5.852E-01    1.8005757E+05   -4.3946737E+01   -8.2842030E+02    1.6598782E+05    4.3945174E+01    1.8005760E+05
   -2.09   500.000   -6.670E-01    1.9986403E+05   -6.1253173E+01   -8.7117160E+02    1.8421353E+05    6.1251501E+01    1.9986405E+05
   -2.08   500.000   -7.516E-01    2.2097291E+05   -7.8849712E+01   -9.0263638E+02    2.0350244E+05    7.8847826E+01    2.2097294E+05
   -2.07   500.000   -8.393E-01    2.4335875E+05   -9.6574066E+01   -9.2121148E+02    2.2378042E+05    9.6571836E+01    2.4335878E+05
   -2.06   500.000   -9.303E-01    2.6699562E+05   -1.1412967E+02   -9.2474163E+02    2.4500345E+05    1.1412694E+02    2.6699565E+05
   -2.05   500.000   -1.025E+00    2.9185167E+05   -1.3098582E+02   -9.1225440E+02    2.6716540E+05    1.3098242E+02    2.9185171E+05
   -2.04   500.000   -1.124E+00    3.1788274E+05   -1.4625304E+02   -8.8548066E+02    2.9029608E+05    1.4624881E+02    3.1788277E+05
   -2.03   500.000   -1.226E+00    3.4502520E+05   -1.5858525E+02   -8.4964560E+02    3.1444627E+05    1.5858001E+02    3.4502525E+05
   -2.02   500.000   -1.333E+00    3.7318887E+05   -1.6619584E+02   -8.1349626E+02    3.3965925E+05    1.6618945E+02    3.7318891E+05
   -2.01   500.000   -1.443E+00    4.0225089E+05   -1.6708528E+02   -7.8888183E+02    3.6593381E+05    1.6707763E+02    4.0225094E+05
   -2.00   500.000   -1.558E+00    4.3205411E+05   -1.5953339E+02   -7.9017154E+02    3.9318890E+05    1.5952443E+02    4.3205416E+05
   -1.99   500.000   -1.678E+00    4.6241334E+05   -1.4279963E+02   -8.3346420E+02    4.2124337E+05    1.4278935E+02    4.6241340E+05
   -1.98   500.000   -1.801E+00    4.9313184E+05   -1.1783419E+02   -9.3523787E+02    4.4982224E+05    1.1782265E+02    4.9313190E+05
   -1.97   500.000   -1.928E+00    5.2402566E+05   -8.7711685E+01   -1.1101066E+03    4.7859309E+05    8.7698998E+01    5.2402572E+05
   -1.96   500.000   -2.059E+00    5.5494973E+05   -5.7533489E+01   -1.3677635E+03    5.0722566E+05    5.7519812E+01    5.5494979E+05
   -1.95   500.000   -2.194E+00    5.8581760E+05   -3.3706419E+01   -1.7098269E+03    5.3545950E+05    3.3691950E+01    5.8581767E+05
   -1.94   500.000   -2.333E+00    6.1660788E+05   -2.2710870E+01   -2.1278408E+03    5.6316089E+05    2.2695839E+01    6.1660795E+05
   -1.93   500.000   -2.475E+00    6.4735332E+05   -2.9612872E+01   -2.6037158E+03    5.9035324E+05    2.9597531E+01    6.4735339E+05
   -1.92   500.000   -2.621E+00    6.7811163E+05   -5.6612955E+01   -3.1131747E+03    6.1721162E+05    5.6597566E+01    6.7811170E+05
   -1.91   500.000   -2.770E+00    7.0892067E+05   -1.0190259E+02   -3.6314473E+03    6.4402187E+05    1.0188742E+02    7.0892074E+05
   -1.90   500.000   -2.923E+00    7.3974623E+05   -1.5907717E+02   -4.1392309E+03    6.7111331E+05    1.5906244E+02    7.3974630E+05
   -1.89   500.000   -3.080E+00    7.7043657E+05   -2.1733937E+02   -4.6265952E+03    6.9878017E+05    2.1732529E+02    7.7043663E+05
   -1.88   500.000   -3.241E+00    8.0070180E+05   -2.6266450E+02   -5.0933257E+03    7.2720884E+05    2.6265122E+02    8.0070187E+05
   -1.87   500.000   -3.405E+00    8.3013288E+05   -2.7992923E+02   -5.5456989E+03    7.5642570E+05    2.7991682E+02    8.3013295E+05
   -1.86   500.000   -3.573E+00    8.5826382E+05   -2.5572965E+02   -5.9910488E+03    7.8627629E+05    2.5571812E+02    8.5826388E+05
   -1.85   500.000   -3.744E+00    8.8466584E+05   -1.8132087E+02   -6.4321574E+03    8.1644056E+05    1.8131016E+02    8.8466590E+05
   -1.84   500.000   -3.919E+00    9.0904994E+05   -5.4937307E+01   -6.8633773E+03    8.4648245E+05    5.4927322E+01    9.0905000E+05
   -1.83   500.000   -4.098E+00    9.3135038E+05    1.1718849E+02   -7.2696998E+03    8.7592334E+05   -1.1719786E+02    9.3135043E+05
   -1.82   500.000   -4.279E+00    9.5176668E+05    3.2147936E+02   -7.6290431E+03    9.0432214E+05   -3.2148821E+02    9.5176674E+05
   -1.81   500.000   -4.464E+00    9.7075329E+05    5.3924068E+02   -7.9171113E+03    9.3134294E+05   -5.3924905E+02    9.7075335E+05
   -1.80   500.000   -4.651E+00    9.8895848E+05    7.4992256E+02   -8.1134034E+03    9.5679629E+05   -7.4993047E+02    9.8895854E+05
   -1.79   500.000   -4.840E+00    1.0071249E+06    9.3467197E+02   -8.2064581E+03    9.8065024E+05   -9.3467936E+02    1.0071249E+06
   -1.78   500.000   -5.031E+00    1.0259701E+06    1.0795168E+03   -8.1964506E+03    1.0030157E+06   -1.0795235E+03    1.0259701E+06
   -1.77   500.000   -5.225E+00    1.0460673E+06    1.1777223E+03   -8.0941198E+03    1.0241134E+06   -1.1777283E+03    1.0460673E+06
   -1.76   500.000   -5.420E+00    1.0677434E+06    1.2308971E+03   -7.9165481E+03    1.0442279E+06   -1.2309023E+03    1.0677434E+06
   -1.75   500.000   -5.618E+00    1.0910098E+06    1.2482968E+03   -7.6818149E+03    1.0636517E+06   -1.2483012E+03    1.0910098E+06
   -1.74   500.000   -5.819E+00    1.1155378E+06    1.2438987E+03   -7.4050356E+03    1.0826244E+06   -1.2439023E+03    1.1155379E+06
   -1.73   500.000   -6.022E+00    1.1406872E+06    1.2315991E+03   -7.0974501E+03    1.1012762E+06   -1.2316020E+03    1.1406873E+06
   -1.72   500.000   -6.227E+00    1.1655886E+06    1.2200927E+03   -6.7685859E+03    1.1195899E+06   -1.2200952E+03    1.1655887E+06
   -1.71   500.000   -6.436E+00    1.1892731E+06    1.2097278E+03   -6.4300867E+03    1.1373928E+06   -1.2097300E+03    1.1892732E+06
   -1.70   500.000   -6.646E+00    1.2108301E+06    1.1931005E+03   -6.0992302E+03    1.1543864E+06   -1.1931027E+03    1.2108302E+06
   -1.69   500.000   -6.859E+00    1.2295662E+06    1.1594385E+03   -5.8005133E+03    1.1702070E+06   -1.1594408E+03    1.2295662E+06
   -1.68   500.000   -7.075E+00    1.2451321E+06    1.1008772E+03   -5.5645514E+03    1.1845040E+06   -1.1008799E+03    1.2451321E+06
   -1.67   500.000   -7.292E+00    1.2575880E+06    1.0176933E+03   -5.4245259E+03    1.1970118E+06   -1.0176964E+03    1.2575881E+06
   -1.66   500.000   -7.512E+00    1.2673871E+06    9.2001535E+02   -5.4112787E+03    1.2075983E+06   -9.2001877E+02    1.2673872E+06
   -1.65   500.000   -7.733E+00    1.2752761E+06    8.2526934E+02   -5.5486785E+03    1.2162766E+06   -8.2527292E+02    1.2752762E+06
   -1.64   500.000   -7.957E+00    1.2821355E+06    7.5270026E+02   -5.8507663E+03    1.2231825E+06   -7.5270371E+02    1.2821356E+06
   -1.63   500.000   -8.183E+00    1.2887973E+06    7.1762518E+02   -6.3212524E+03    1.2285253E+06   -7.1762818E+02    1.2887973E+06
   -1.62   500.000   -8.411E+00    1.2958873E+06    7.2794171E+02   -6.9545851E+03    1.2325286E+06   -7.2794386E+02    1.2958874E+06
   -1.61   500.000   -8.643E+00    1.3037315E+06    7.8401013E+02   -7.7370649E+03    1.2353756E+06   -7.8401106E+02    1.3037316E+06
   -1.60   500.000   -8.877E+00    1.3123447E+06    8.8122839E+02   -8.6471268E+03    1.2371765E+06   -8.8122775E+02    1.3123448E+06
   -1.59   500.000   -9.114E+00    1.3214994E+06    1.0134134E+03   -9.6556491E+03    1.2379653E+06   -1.0134109E+03    1.3214995E+06
   -1.58   500.000   -9.355E+00    1.3308471E+06    1.1750283E+03   -1.0728402E+04    1.2377334E+06   -1.1750238E+03    1.3308472E+06
   -1.57   500.000   -9.599E+00    1.3400575E+06    1.3612367E+03   -1.1831991E+04    1.2364956E+06   -1.3612301E+03    1.3400576E+06
   -1.56   500.000   -9.847E+00    1.3489369E+06    1.5661295E+03   -1.2941919E+04    1.2343728E+06   -1.5661210E+03    1.3489370E+06
   -1.55   500.000   -1.010E+01    1.3574936E+06    1.7805829E+03   -1.4048665E+04    1.2316631E+06   -1.7805726E+03    1.3574937E+06
   -1.54   500.000   -1.035E+01    1.3659306E+06    1.9915559E+03   -1.5157552E+04    1.2288692E+06   -1.9915443E+03    1.3659307E+06
   -1.53   500.000   -1.061E+01    1.3745704E+06    2.1840881E+03   -1.6281063E+04    1.2266602E+06   -2.1840755E+03    1.3745705E+06
   -1.52   500.000   -1.087E+01    1.3837374E+06    2.3459811E+03   -1.7426501E+04    1.2257732E+06   -2.3459678E+03    1.3837375E+06
   -1.51   500.000   -1.113E+01    1.3936425E+06    2.4736291E+03   -1.8584436E+04    1.2268845E+06   -2.4736155E+03    1.3936426E+06
   -1.50   500.000   -1.140E+01    1.4043137E+06    2.5763664E+03   -1.9722993E+04    1.2304981E+06   -2.5763526E+03    1.4043138E+06
   -1.49   500.000   -1.167E+01    1.4156006E+06    2.6766772E+03   -2.0790396E+04    1.2368889E+06   -2.6766633E+03    1.4156007E+06
   -1.48   500.000   -1.194E+01    1.4272505E+06    2.8049902E+03   -2.1725019E+04    1.2461179E+06   -2.8049762E+03    1.4272506E+06
   -1.47   500.000   -1.222E+01    1.4390311E+06    2.9901692E+03   -2.2469799E+04    1.2581028E+06   -2.9901551E+03    1.4390312E+06
   -1.46   500.000   -1.249E+01    1.4508544E+06    3.2490971E+03   -2.2986705E+04    1.2727086E+06   -3.2490827E+03    1.4508545E+06
   -1.45   500.000   -1.278E+01    1.4628604E+06    3.5795688E+03   -2.3267117E+04    1.2898164E+06   -3.5795539E+03    1.4628604E+06
   -1.44   500.000   -1.306E+01    1.4754306E+06    3.9594059E+03   -2.3335531E+04    1.3093404E+06   -3.9593904E+03    1.4754307E+06
   -1.43   500.000   -1.335E+01    1.4891283E+06    4.3519245E+03   -2.3246510E+04    1.3311893E+06   -4.3519081E+03    1.4891284E+06
   -1.42   500.000   -1.364E+01    1.5045819E+06    4.7151728E+03   -2.3076850E+04    1.3551953E+06   -4.7151553E+03    1.5045820E+06
   -1.41   500.000   -1.393E+01    1.5223472E+06    5.0111037E+03   -2.2915358E+04    1.3810484E+06   -5.0110851E+03    1.5223472E+06
   -1.40   500.000   -1.423E+01    1.5427843E+06    5.2114489E+03   -2.2851525E+04    1.4082736E+06   -5.2114290E+03    1.5427843E+06
   -1.39   500.000   -1.453E+01    1.5659767E+06    5.2989386E+03   -2.2963392E+04    1.4362720E+06   -5.2989173E+03    1.5659768E+06
   -1.38   500.000   -1.484E+01    1.5917044E+06    5.2646471E+03   -2.3305292E+04    1.4644147E+06   -5.2646248E+03    1.5917045E+06
   -1.37   500.000   -1.515E+01    1.6194651E+06    5.1037260E+03   -2.3897617E+04    1.4921604E+06   -5.1037027E+03    1.6194651E+06
   -1.36   500.000   -1.546E+01    1.6485266E+06    4.8121575E+03   -2.4721654E+04    1.5191531E+06   -4.8121338E+03    1.6485266E+06
   -1.35   500.000   -1.577E+01    1.6779894E+06    4.3864422E+03   -2.5721859E+04    1.5452689E+06   -4.3864185E+03    1.6779894E+06
   -1.34   500.000   -1.609E+01    1.7068449E+06    3.8266625E+03   -2.6815803E+04    1.5706027E+06   -3.8266393E+03    1.7068449E+06
   -1.33   500.000   -1.641E+01    1.7340290E+06    3.1416871E+03   -2.7909625E+04    1.5954039E+06   -3.1416647E+03    1.7340290E+06
   -1.32   500.000   -1.673E+01    1.7584860E+06    2.3540515E+03   -2.8915253E+04    1.6199841E+06   -2.3540302E+03    1.7584860E+06
   -1.31   500.000   -1.706E+01    1.7792645E+06    1.5019301E+03   -2.9765426E+04    1.6446188E+06   -1.5019101E+03    1.7792645E+06
   -1.30   500.000   -1.738E+01    1.7956570E+06    6.3681505E+02   -3.0423578E+04    1.6694608E+06   -6.3679627E+02    1.7956571E+06
   -1.29   500.000   -1.771E+01    1.8073728E+06   -1.8254636E+02   -3.0887229E+04    1.6944784E+06    1.8256407E+02    1.8073728E+06
   -1.28   500.000   -1.804E+01    1.8147011E+06   -8.9795021E+02   -3.1185123E+04    1.7194276E+06    8.9796706E+02    1.8147011E+06
   -1.27   500.000   -1.837E+01    1.8186062E+06   -1.4591941E+03   -3.1369415E+04    1.7438640E+06    1.4592103E+03    1.8186062E+06
   -1.26   500.000   -1.870E+01    1.8207004E+06   -1.8301928E+03   -3.1504818E+04    1.7671914E+06    1.8302084E+03    1.8207004E+06
   -1.25   500.000   -1.904E+01    1.8230742E+06   -1.9937837E+03   -3.1656791E+04    1.7887438E+06    1.9937988E+03    1.8230742E+06
   -1.24   500.000   -1.937E+01    1.8280082E+06   -1.9553011E+03   -3.1880959E+04    1.8078940E+06    1.9553157E+03    1.8280082E+06
   -1.23   500.000   -1.971E+01    1.8376247E+06   -1.7442355E+03   -3.2215957E+04    1.8241822E+06    1.7442493E+03    1.8376247E+06
   -1.22   500.000   -2.005E+01    1.8535535E+06   -1.4127334E+03   -3.2681334E+04    1.8374512E+06    1.4127464E+03    1.8535535E+06
   -1.21   500.000   -2.040E+01    1.8766850E+06   -1.0301073E+03   -3.3280750E+04    1.8479623E+06    1.0301194E+03    1.8766850E+06
   -1.20   500.000   -2.075E+01    1.9070628E+06   -6.7375822E+02   -3.4008691E+04    1.8564584E+06    6.7376941E+02    1.9070628E+06
   -1.19   500.000   -2.111E+01    1.9439417E+06   -4.1817709E+02   -3.4857533E+04    1.8641479E+06    4.1818754E+02    1.9439417E+06
   -1.18   500.000   -2.147E+01    1.9859926E+06   -3.2425249E+02   -3.5821930E+04    1.8726022E+06    3.2426248E+02    1.9859926E+06
   -1.17   500.000   -2.183E+01    2.0315974E+06   -4.3088772E+02   -3.6899039E+04    1.8835868E+06    4.3089762E+02    2.0315974E+06
   -1.16   500.000   -2.221E+01    2.0791461E+06   -7.5030404E+02   -3.8084815E+04    1.8988596E+06    7.5031426E+02    2.0791461E+06
   -1.15   500.000   -2.259E+01    2.1272560E+06   -1.2677825E+03   -3.9367752E+04    1.9199660E+06    1.2677935E+03    2.1272560E+06
   -1.14   500.000   -2.297E+01    2.1748677E+06   -1.9460244E+03   -4.0722228E+04    1.9480557E+06    1.9460365E+03    2.1748677E+06
   -1.13   500.000   -2.337E+01    2.2212269E+06   -2.7335971E+03   -4.2104124E+04    1.9837345E+06    2.7336107E+03    2.2212269E+06
   -1.12   500.000   -2.377E+01    2.2658006E+06   -3.5760047E+03   -4.3451242E+04    2.0269687E+06    3.5760198E+03    2.2658006E+06
   -1.11   500.000   -2.417E+01    2.3081871E+06   -4.4270049E+03   -4.4689577E+04    2.0770539E+06    4.4270218E+03    2.3081871E+06
   -1.10   500.000   -2.459E+01    2.3480625E+06   -5.2573155E+03   -4.5744100E+04    2.1326561E+06    5.2573340E+03    2.3480625E+06
   -1.09   500.000   -2.501E+01    2.3851736E+06   -6.0581854E+03   -4.6551218E+04    2.1919183E+06    6.0582053E+03    2.3851736E+06
   -1.08   500.000   -2.544E+01    2.4193658E+06   -6.8385932E+03   -4.7070493E+04    2.2526194E+06    6.8386142E+03    2.4193658E+06
   -1.07   500.000   -2.588E+01    2.4506226E+06   -7.6168101E+03   -4.7294683E+04    2.3123721E+06    7.6168317E+03    2.4506226E+06
   -1.06   500.000   -2.632E+01    2.4790956E+06   -8.4090255E+03   -4.7257768E+04    2.3688490E+06    8.4090472E+03    2.4790956E+06
   -1.05   500.000   -2.676E+01    2.5051079E+06   -9.2187975E+03   -4.7039199E+04    2.4200235E+06    9.2188188E+03    2.5051079E+06
   -1.04   500.000   -2.722E+01    2.5291222E+06   -1.0030705E+04   -4.6760996E+04    2.4643977E+06    1.0030725E+04    2.5291222E+06
   -1.03   500.000   -2.767E+01    2.5516744E+06   -1.0809947E+04   -4.6575020E+04    2.5011798E+06    1.0809966E+04    2.5516745E+06
   -1.02   500.000   -2.813E+01    2.5732913E+06   -1.1507631E+04   -4.6641822E+04    2.5303730E+06    1.1507648E+04    2.5732914E+06
   -1.01   500.000   -2.860E+01    2.5944213E+06   -1.2069925E+04   -4.7107165E+04    2.5527549E+06    1.2069941E+04    2.5944213E+06
   -1.00   500.000   -2.906E+01    2.6154022E+06   -1.2448724E+04   -4.8084122E+04    2.5697512E+06    1.2448736E+04    2.6154022E+06
   -0.99   500.000   -2.953E+01    2.6364718E+06   -1.2611563E+04   -4.9645933E+04    2.5832256E+06    1.2611573E+04    2.6364718E+06
   -0.98   500.000   -3.000E+01    2.6578023E+06   -1.2549010E+04   -5.1829525E+04    2.5952160E+06    1.2549017E+04    2.6578024E+06
   -0.97   500.000   -3.046E+01    2.6795297E+06   -1.2277917E+04   -5.4645096E+04    2.6076505E+06    1.2277921E+04    2.6795298E+06
   -0.96   500.000   -3.093E+01    2.7017545E+06   -1.1839182E+04   -5.8085600E+04    2.6220807E+06    1.1839182E+04    2.7017546E+06
   -0.95   500.000   -3.140E+01    2.7245123E+06   -1.1289327E+04   -6.2131568E+04    2.6394761E+06    1.1289324E+04    2.7245123E+06
   -0.94   500.000   -3.187E+01    2.7477269E+06   -1.0686888E+04   -6.6750346E+04    2.6601196E+06    1.0686881E+04    2.7477270E+06
   -0.93   500.000   -3.233E+01    2.7711674E+06   -1.0076789E+04   -7.1892897E+04    2.6836288E+06    1.0076780E+04    2.7711674E+06
   -0.92   500.000   -3.280E+01    2.7944237E+06   -9.4775160E+03   -7.7493566E+04    2.7090979E+06    9.4775034E+03    2.7944238E+06
   -0.91   500.000   -3.326E+01    2.8169136E+06   -8.8756941E+03   -8.3476854E+04    2.7353215E+06    8.8756790E+03    2.8169137E+06
   -0.90   500.000   -3.373E+01    2.8379247E+06   -8.2304245E+03   -8.9770030E+04    2.7610425E+06    8.2304075E+03    2.8379248E+06
   -0.89   500.000   -3.419E+01    2.8566961E+06   -7.4860494E+03   -9.6314450E+04    2.7851644E+06    7.4860306E+03    2.8566961E+06
   -0.88   500.000   -3.465E+01    2.8725350E+06   -6.5886813E+03   -1.0306606E+05    2.8068871E+06    6.5886610E+03    2.8725351E+06
   -0.87   500.000   -3.511E+01    2.8849529E+06   -5.5003652E+03   -1.0997955E+05    2.8257597E+06    5.5003435E+03    2.8849530E+06
   -0.86   500.000   -3.557E+01    2.8937941E+06   -4.2059703E+03   -1.1697982E+05    2.8416727E+06    4.2059472E+03    2.8937942E+06
   -0.85   500.000   -3.603E+01    2.8993287E+06   -2.7113494E+03   -1.2393258E+05    2.8548257E+06    2.7113246E+03    2.8993287E+06
   -0.84   500.000   -3.649E+01    2.9022843E+06   -1.0353316E+03   -1.3062894E+05    2.8656987E+06    1.0353050E+03    2.9022844E+06
   -0.83   500.000   -3.695E+01    2.9037997E+06    7.9923274E+02   -1.3679246E+05    2.8750329E+06   -7.9926149E+02    2.9037998E+06
   -0.82   500.000   -3.740E+01    2.9052929E+06    2.7701671E+03   -1.4210764E+05    2.8838027E+06   -2.7701983E+03    2.9052929E+06
   -0.81   500.000   -3.786E+01    2.9082576E+06    4.8537585E+03   -1.4625988E+05    2.8931512E+06   -4.8537924E+03    2.9082577E+06
   -0.80   500.000   -3.831E+01    2.9140234E+06    7.0167630E+03   -1.4897517E+05    2.9042709E+06   -7.0167998E+03    2.9140234E+06
   -0.79   500.000   -3.876E+01    2.9235360E+06    9.2069058E+03   -1.5005061E+05    2.9182350E+06   -9.2069456E+03    2.9235361E+06
   -0.78   500.000   -3.922E+01    2.9372192E+06    1.1347390E+04   -1.4937335E+05    2.9358135E+06   -1.1347433E+04    2.9372192E+06
   -0.77   500.000   -3.966E+01    2.9549562E+06    1.3339813E+04   -1.4692923E+05    2.9573244E+06   -1.3339859E+04    2.9549563E+06
   -0.76   500.000   -4.011E+01    2.9761955E+06    1.5076767E+04   -1.4280473E+05    2.9825690E+06   -1.5076816E+04    2.9761955E+06
   -0.75   500.000   -4.056E+01    3.0001412E+06    1.6461272E+04   -1.3718498E+05    3.0108787E+06   -1.6461324E+04    3.0001412E+06
   -0.74   500.000   -4.100E+01    3.0259709E+06    1.7426642E+04   -1.3034855E+05    3.0412677E+06   -1.7426696E+04    3.0259709E+06
   -0.73   500.000   -4.145E+01    3.0530192E+06    1.7949179E+04   -1.2265717E+05    3.0726537E+06   -1.7949236E+04    3.0530193E+06
   -0.72   500.000   -4.189E+01    3.0808838E+06    1.8048419E+04   -1.1453598E+05    3.1040877E+06   -1.8048479E+04    3.0808838E+06
   -0.71   500.000   -4.233E+01    3.1094330E+06    1.7774746E+04   -1.0643985E+05    3.1349235E+06   -1.7774808E+04    3.1094330E+06
   -0.70   500.000   -4.276E+01    3.1387157E+06    1.7189778E+04   -9.8805329E+04    3.1648755E+06   -1.7189843E+04    3.1387157E+06
   -0.69   500.000   -4.320E+01    3.1687961E+06    1.6347801E+04   -9.1994035E+04    3.1939431E+06   -1.6347868E+04    3.1687961E+06
   -0.68   500.000   -4.363E+01    3.1995517E+06    1.5285196E+04   -8.6239098E+04    3.2222232E+06   -1.5285266E+04    3.1995517E+06
   -0.67   500.000   -4.406E+01    3.2304896E+06    1.4020378E+04   -8.1608471E+04    3.2496710E+06   -1.4020449E+04    3.2304896E+06
   -0.66   500.000   -4.449E+01    3.2606354E+06    1.2562092E+04   -7.7995504E+04    3.2758903E+06   -1.2562165E+04    3.2606354E+06
   -0.65   500.000   -4.492E+01    3.2885428E+06    1.0921563E+04   -7.5140750E+04    3.3000307E+06   -1.0921638E+04    3.2885428E+06
   -0.64   500.000   -4.534E+01    3.3124429E+06    9.1238966E+03   -7.2681657E+04    3.3208347E+06   -9.1239728E+03    3.3124430E+06
   -0.63   500.000   -4.577E+01    3.3305130E+06    7.2151042E+03   -7.0221081E+04    3.3368350E+06   -7.2151819E+03    3.3305130E+06
   -0.62   500.000   -4.620E+01    3.3412045E+06    5.2622433E+03   -6.7401935E+04    3.3466482E+06   -5.2623224E+03    3.3412046E+06
   -0.61   500.000   -4.663E+01    3.3435442E+06    3.3457662E+03   -6.3973808E+04    3.3492816E+06   -3.3458471E+03    3.3435443E+06
   -0.60   500.000   -4.706E+01    3.3373247E+06    1.5458073E+03   -5.9838103E+04    3.3443652E+06   -1.5458901E+03    3.3373248E+06
   -0.59   500.000   -4.749E+01    3.3231360E+06   -7.3146384E+01   -5.5061802E+04    3.3322426E+06    7.3061473E+01    3.3231361E+06
   -0.58   500.000   -4.792E+01    3.3022330E+06   -1.4736051E+03   -4.9856893E+04    3.3138969E+06    1.4735180E+03    3.3022331E+06
   -0.57   500.000   -4.835E+01    3.2762837E+06   -2.6482675E+03   -4.4531339E+04    3.2907291E+06    2.6481784E+03    3.2762838E+06
   -0.56   500.000   -4.878E+01    3.2470647E+06   -3.6141979E+03   -3.9425047E+04    3.2642489E+06    3.6141071E+03    3.2470648E+06
   -0.55   500.000   -4.921E+01    3.2161798E+06   -4.4007029E+03   -3.4846946E+04    3.2357576E+06    4.4006109E+03    3.2161799E+06
   -0.54   500.000   -4.965E+01    3.1848662E+06   -5.0358609E+03   -3.1026328E+04    3.2061081E+06    5.0357685E+03    3.1848664E+06
   -0.53   500.000   -5.009E+01    3.1539206E+06   -5.5366687E+03   -2.8085352E+04    3.1755984E+06    5.5365769E+03    3.1539208E+06
   -0.52   500.000   -5.053E+01    3.1237399E+06   -5.9056582E+03   -2.6034192E+04    3.1440160E+06    5.9055680E+03    3.1237400E+06
   -0.51   500.000   -5.097E+01    3.0944323E+06   -6.1337385E+03   -2.4787055E+04    3.1108044E+06    6.1336510E+03    3.0944325E+06
   -0.50   500.000   -5.142E+01    3.0659357E+06   -6.2067252E+03   -2.4195093E+04    3.0752929E+06    6.2066417E+03    3.0659358E+06
   -0.49   500.000   -5.187E+01    3.0380914E+06   -6.1127407E+03   -2.4088881E+04    3.0369287E+06    6.1126622E+03    3.0380915E+06
   -0.48   500.000   -5.233E+01    3.0106645E+06   -5.8490296E+03   -2.4319705E+04    2.9954630E+06    5.8489569E+03    3.0106646E+06
   -0.47   500.000   -5.280E+01    2.9833392E+06   -5.4280766E+03   -2.4788202E+04    2.9510683E+06    5.4280103E+03    2.9833394E+06
   -0.46   500.000   -5.327E+01    2.9557372E+06   -4.8828895E+03   -2.5452944E+04    2.9043772E+06    4.8828298E+03    2.9557373E+06
   -0.45   500.000   -5.376E+01    2.9274903E+06   -4.2702339E+03   -2.6318973E+04    2.8564460E+06    4.2701806E+03    2.9274904E+06
   -0.44   500.000   -5.425E+01    2.8983645E+06   -3.6700074E+03   -2.7413583E+04    2.8086494E+06    3.6699601E+03    2.8983646E+06
   -0.43   500.000   -5.476E+01    2.8683943E+06   -3.1798208E+03   -2.8760586E+04    2.7625254E+06    3.1797787E+03    2.8683944E+06
   -0.42   500.000   -5.528E+01    2.8379756E+06   -2.9055694E+03   -3.0363229E+04    2.7195948E+06    2.9055315E+03    2.8379757E+06
   -0.41   500.000   -5.581E+01    2.8078697E+06   -2.9497393E+03   -3.2200433E+04    2.6811814E+06    2.9497044E+03    2.8078698E+06
   -0.40   500.000   -5.635E+01    2.7790996E+06   -3.3987232E+03   -3.4234134E+04    2.6482572E+06    3.3986902E+03    2.7790998E+06
   -0.39   500.000   -5.691E+01    2.7527538E+06   -4.3095910E+03   -3.6421117E+04    2.6213251E+06    4.3095587E+03    2.7527539E+06
   -0.38   500.000   -5.748E+01    2.7297463E+06   -5.6972361E+03   -3.8723277E+04    2.6003565E+06    5.6972036E+03    2.7297464E+06
   -0.37   500.000   -5.806E+01    2.7106029E+06   -7.5248370E+03   -4.1114395E+04    2.5847940E+06    7.5248035E+03    2.7106030E+06
   -0.36   500.000   -5.866E+01    2.6953374E+06   -9.7022343E+03   -4.3585330E+04    2.5736285E+06    9.7021992E+03    2.6953376E+06
   -0.35   500.000   -5.927E+01    2.6834560E+06   -1.2095777E+04   -4.6149754E+04    2.5655412E+06    1.2095739E+04    2.6834561E+06
   -0.34   500.000   -5.989E+01    2.6740805E+06   -1.4548946E+04   -4.8849406E+04    2.5590827E+06    1.4548906E+04    2.6740806E+06
   -0.33   500.000   -6.052E+01    2.6661431E+06   -1.6907934E+04   -5.1754616E+04    2.5528493E+06    1.6907892E+04    2.6661433E+06
   -0.32   500.000   -6.117E+01    2.6585854E+06   -1.9043788E+04   -5.4956001E+04    2.5456232E+06    1.9043743E+04    2.6585855E+06
   -0.31   500.000   -6.182E+01    2.6505047E+06   -2.0864670E+04   -5.8547057E+04    2.5364611E+06    2.0864622E+04    2.6505048E+06
   -0.30   500.000   -6.247E+01    2.6412221E+06   -2.2317095E+04   -6.2601869E+04    2.5247338E+06    2.2317045E+04    2.6412222E+06
   -0.29   500.000   -6.314E+01    2.6302779E+06   -2.3380285E+04   -6.7153907E+04    2.5101305E+06    2.3380233E+04    2.6302780E+06
   -0.28   500.000   -6.381E+01    2.6173872E+06   -2.4059859E+04   -7.2179875E+04    2.4926401E+06    2.4059805E+04    2.6173873E+06
   -0.27   500.000   -6.448E+01    2.6023924E+06   -2.4385024E+04   -7.7589666E+04    2.4725172E+06    2.4384969E+04    2.6023925E+06
   -0.26   500.000   -6.516E+01    2.5852442E+06   -2.4409090E+04   -8.3222801E+04    2.4502402E+06    2.4409036E+04    2.5852443E+06
   -0.25   500.000   -6.585E+01    2.5660176E+06   -2.4209657E+04   -8.8853932E+04    2.4264723E+06    2.4209604E+04    2.5660177E+06
   -0.24   500.000   -6.654E+01    2.5449494E+06   -2.3884538E+04   -9.4211902E+04    2.4020286E+06    2.3884488E+04    2.5449495E+06
   -0.23   500.000   -6.724E+01    2.5224687E+06   -2.3542083E+04   -9.9014898E+04    2.3778482E+06    2.3542036E+04    2.5224688E+06
   -0.22   500.000   -6.794E+01    2.4991934E+06   -2.3287769E+04   -1.0301745E+05    2.3549554E+06    2.3287727E+04    2.4991935E+06
   -0.21   500.000   -6.865E+01    2.4758811E+06   -2.3210484E+04   -1.0605734E+05    2.3343970E+06    2.3210448E+04    2.4758812E+06
   -0.20   500.000   -6.937E+01    2.4533454E+06   -2.3371408E+04   -1.0808735E+05    2.3171474E+06    2.3371378E+04    2.4533455E+06
   -0.19   500.000   -7.009E+01    2.4323617E+06   -2.3797166E+04   -1.0918149E+05    2.3039968E+06    2.3797142E+04    2.4323618E+06
   -0.18   500.000   -7.083E+01    2.4135935E+06   -2.4477940E+04   -1.0951566E+05    2.2954484E+06    2.4477923E+04    2.4135936E+06
   -0.17   500.000   -7.157E+01    2.3975575E+06   -2.5370780E+04   -1.0933254E+05    2.2916553E+06    2.5370769E+04    2.3975576E+06
   -0.16   500.000   -7.231E+01    2.3846300E+06   -2.6407610E+04   -1.0890321E+05    2.2924123E+06    2.6407603E+04    2.3846301E+06
   -0.15   500.000   -7.307E+01    2.3750786E+06   -2.7506433E+04   -1.0849436E+05    2.2972019E+06    2.7506430E+04    2.3750787E+06
   -0.14   500.000   -7.383E+01    2.3690920E+06   -2.8583271E+04   -1.0834214E+05    2.3052740E+06    2.8583272E+04    2.3690921E+06
   -0.13   500.000   -7.459E+01    2.3667843E+06   -2.9562187E+04   -1.0862946E+05    2.3157347E+06    2.9562189E+04    2.3667844E+06
   -0.12   500.000   -7.536E+01    2.3681592E+06   -3.0381512E+04   -1.0946502E+05    2.3276240E+06    3.0381516E+04    2.3681593E+06
   -0.11   500.000   -7.614E+01    2.3730458E+06   -3.0995937E+04   -1.1086732E+05    2.3399767E+06    3.0995940E+04    2.3730459E+06
   -0.10   500.000   -7.692E+01    2.3810325E+06   -3.1375710E+04   -1.1276059E+05    2.3518760E+06    3.1375714E+04    2.3810326E+06
   -0.09   500.000   -7.771E+01    2.3914415E+06   -3.1505148E+04   -1.1498838E+05    2.3625132E+06    3.1505151E+04    2.3914416E+06
   -0.08   500.000   -7.850E+01    2.4033750E+06   -3.1382260E+04   -1.1734370E+05    2.3712627E+06    3.1382261E+04    2.4033751E+06
   -0.07   500.000   -7.930E+01    2.4158384E+06   -3.1019893E+04   -1.1960674E+05    2.3777629E+06    3.1019893E+04    2.4158385E+06
   -0.06   500.000   -8.010E+01    2.4279132E+06   -3.0447128E+04   -1.2157764E+05    2.3819819E+06    3.0447127E+04    2.4279133E+06
   -0.05   500.000   -8.091E+01    2.4389261E+06   -2.9708899E+04   -1.2309387E+05    2.3842389E+06    2.9708896E+04    2.4389262E+06
   -0.04   500.000   -8.173E+01    2.4485633E+06   -2.8862416E+04   -1.2403040E+05    2.3851670E+06    2.8862411E+04    2.4485634E+06
   -0.03   500.000   -8.255E+01    2.4568952E+06   -2.7970523E+04   -1.2428903E+05    2.3856176E+06    2.7970517E+04    2.4568953E+06
   -0.02   500.000   -8.338E+01    2.4643129E+06   -2.7093378E+04   -1.2378803E+05    2.3865296E+06    2.7093371E+04    2.4643130E+06
   -0.01   500.000   -8.421E+01    2.4714035E+06   -2.6280268E+04   -1.2246122E+05    2.3887956E+06    2.6280260E+04    2.4714036E+06
    0.00   500.000   -8.505E+01    2.4788055E+06   -2.5563050E+04   -1.2026880E+05    2.3931539E+06    2.5563041E+04    2.4788055E+06
    0.01   500.000   -8.590E+01    2.4870834E+06   -2.4952313E+04   -1.1721505E+05    2.4001236E+06    2.4952304E+04    2.4870835E+06
    0.02   500.000   -8.675E+01    2.4966451E+06   -2.4437179E+04   -1.1336499E+05    2.4099791E+06    2.4437170E+04    2.4966451E+06
    0.03   500.000   -8.761E+01    2.5077039E+06   -2.3989314E+04   -1.0885293E+05    2.4227538E+06    2.3989306E+04    2.5077040E+06
    0.04   500.000   -8.847E+01    2.5202717E+06   -2.3570707E+04   -1.0387988E+05    2.4382545E+06    2.3570701E+04    2.5202718E+06
    0.05   500.000   -8.934E+01    2.5341585E+06   -2.3143266E+04   -9.8699660E+04    2.4560739E+06    2.3143262E+04    2.5341586E+06
    0.06   500.000   -9.021E+01    2.5489620E+06   -2.2677330E+04   -9.3594908E+04    2.4755934E+06    2.2677329E+04    2.5489620E+06
    0.07   500.000   -9.110E+01    2.5640455E+06   -2.2156390E+04   -8.8844742E+04    2.4959810E+06    2.2156393E+04    2.5640456E+06
    0.08   500.000   -9.199E+01    2.5785248E+06   -2.1576794E+04   -8.4687010E+04    2.5161940E+06    2.1576802E+04    2.5785249E+06
    0.09   500.000   -9.290E+01    2.5912886E+06   -2.0943073E+04   -8.1280584E+04    2.5350002E+06    2.0943086E+04    2.5912887E+06
    0.10   500.000   -9.381E+01    2.6010743E+06   -2.0261026E+04   -7.8675816E+04    2.5510288E+06    2.0261044E+04    2.6010743E+06
    0.11   500.000   -9.473E+01    2.6065958E+06   -1.9531529E+04   -7.6802278E+04    2.5628578E+06    1.9531552E+04    2.6065959E+06
    0.12   500.000   -9.566E+01    2.6067028E+06   -1.8747959E+04   -7.5480351E+04    2.5691356E+06    1.8747985E+04    2.6067029E+06
    0.13   500.000   -9.660E+01    2.6005335E+06   -1.7898904E+04   -7.4456638E+04    2.5687256E+06    1.7898934E+04    2.6005335E+06
    0.14   500.000   -9.754E+01    2.5876259E+06   -1.6975540E+04   -7.3454566E+04    2.5608512E+06    1.6975573E+04    2.5876260E+06
    0.15   500.000   -9.849E+01    2.5679606E+06   -1.5980441E+04   -7.2225334E+04    2.5452080E+06    1.5980476E+04    2.5679606E+06
    0.16   500.000   -9.945E+01    2.5419243E+06   -1.4933251E+04   -7.0584683E+04    2.5220109E+06    1.4933288E+04    2.5419243E+06
    0.17   500.000   -1.004E+02    2.5102065E+06   -1.3869619E+04   -6.8428098E+04    2.4919563E+06    1.3869657E+04    2.5102065E+06
    0.18   500.000   -1.014E+02    2.4736553E+06   -1.2832868E+04   -6.5726761E+04    2.4561041E+06    1.2832907E+04    2.4736554E+06
    0.19   500.000   -1.023E+02    2.4331320E+06   -1.1861574E+04   -6.2512694E+04    2.4157091E+06    1.1861613E+04    2.4331321E+06
    0.20   500.000   -1.033E+02    2.3894001E+06   -1.0978414E+04   -5.8861316E+04    2.3720383E+06    1.0978452E+04    2.3894001E+06
    0.21   500.000   -1.042E+02    2.3430688E+06   -1.0185119E+04   -5.4875210E+04    2.3262088E+06    1.0185156E+04    2.3430689E+06
    0.22   500.000   -1.052E+02    2.2945923E+06   -9.4654008E+03   -5.0669409E+04    2.2790691E+06    9.4654370E+03    2.2945923E+06
    0.23   500.000   -1.061E+02    2.2443057E+06   -8.7939572E+03   -4.6358420E+04    2.2311358E+06    8.7939916E+03    2.2443057E+06
    0.24   500.000   -1.070E+02    2.1924774E+06   -8.1472400E+03   -4.2047158E+04    2.1825925E+06    8.1472722E+03    2.1924775E+06
    0.25   500.000   -1.079E+02    2.1393565E+06   -7.5115717E+03   -3.7828138E+04    2.1333510E+06    7.5116015E+03    2.1393566E+06
    0.26   500.000   -1.088E+02    2.0852071E+06   -6.8862580E+03   -3.3784393E+04    2.0831661E+06    6.8862849E+03    2.0852071E+06
    0.27   500.000   -1.097E+02    2.0303285E+06   -6.2821772E+03   -2.9993828E+04    2.0317795E+06    6.2822013E+03    2.0303285E+06
    0.28   500.000   -1.106E+02    1.9750637E+06   -5.7182787E+03   -2.6529676E+04    1.9790592E+06    5.7182999E+03    1.9750638E+06
    0.29   500.000   -1.114E+02    1.9197988E+06   -5.2184606E+03   -2.3454671E+04    1.9250967E+06    5.2184790E+03    1.9197988E+06
    0.30   500.000   -1.123E+02    1.8649530E+06   -4.8097302E+03   -2.0811395E+04    1.8702361E+06    4.8097461E+03    1.8649530E+06
    0.31   500.000   -1.131E+02    1.8109633E+06   -4.5207504E+03   -1.8614265E+04    1.8150368E+06    4.5207641E+03    1.8109634E+06
    0.32   500.000   -1.139E+02    1.7582653E+06   -4.3792577E+03   -1.6848079E+04    1.7601867E+06    4.3792696E+03    1.7582654E+06
    0.33   500.000   -1.147E+02    1.7072758E+06   -4.4077109E+03   -1.5474456E+04    1.7064035E+06    4.4077210E+03    1.7072758E+06
    0.34   500.000   -1.154E+02    1.6583810E+06   -4.6180171E+03   -1.4443526E+04    1.6543508E+06    4.6180257E+03    1.6583810E+06
    0.35   500.000   -1.161E+02    1.6119310E+06   -5.0071286E+03   -1.3705959E+04    1.6045873E+06    5.0071358E+03    1.6119311E+06
    0.36   500.000   -1.169E+02    1.5682374E+06   -5.5551552E+03   -1.3220752E+04    1.5575505E+06    5.5551608E+03    1.5682374E+06
    0.37   500.000   -1.175E+02    1.5275720E+06   -6.2266902E+03   -1.2956463E+04    1.5135660E+06    6.2266943E+03    1.5275721E+06
    0.38   500.000   -1.182E+02    1.4901667E+06   -6.9749507E+03   -1.2886601E+04    1.4728701E+06    6.9749531E+03    1.4901668E+06
    0.39   500.000   -1.189E+02    1.4562135E+06   -7.7476239E+03   -1.2982354E+04    1.4356355E+06    7.7476247E+03    1.4562135E+06
    0.40   500.000   -1.195E+02    1.4258669E+06   -8.4931817E+03   -1.3207203E+04    1.4019947E+06    8.4931811E+03    1.4258670E+06
    0.41   500.000   -1.201E+02    1.3992462E+06   -9.1666925E+03   -1.3517459E+04    1.3720544E+06    9.1666908E+03    1.3992463E+06
    0.42   500.000   -1.208E+02    1.3764330E+06   -9.7344853E+03   -1.3870308E+04    1.3459030E+06    9.7344829E+03    1.3764330E+06
    0.43   500.000   -1.214E+02    1.3574639E+06   -1.0177177E+04   -1.4237242E+04    1.3236098E+06    1.0177174E+04    1.3574639E+06
    0.44   500.000   -1.219E+02    1.3423209E+06   -1.0490618E+04   -1.4617405E+04    1.3052209E+06    1.0490616E+04    1.3423209E+06
    0.45   500.000   -1.225E+02    1.3309263E+06   -1.0684516E+04   -1.5044245E+04    1.2907565E+06    1.0684514E+04    1.3309263E+06
    0.46   500.000   -1.231E+02    1.3231500E+06   -1.0778950E+04   -1.5580854E+04    1.2802179E+06    1.0778948E+04    1.3231500E+06
    0.47   500.000   -1.236E+02    1.3188325E+06   -1.0799601E+04   -1.6303710E+04    1.2736055E+06    1.0799600E+04    1.3188326E+06
    0.48   500.000   -1.242E+02    1.3178169E+06   -1.0772832E+04   -1.7279287E+04    1.2709414E+06    1.0772833E+04    1.3178169E+06
    0.49   500.000   -1.247E+02    1.3199776E+06   -1.0721553E+04   -1.8540886E+04    1.2722850E+06    1.0721555E+04    1.3199777E+06
    0.50   500.000   -1.252E+02    1.3252330E+06   -1.0662262E+04   -2.0072804E+04    1.2777258E+06    1.0662266E+04    1.3252330E+06
    0.51   500.000   -1.258E+02    1.3335322E+06   -1.0603143E+04   -2.1806141E+04    1.2873463E+06    1.0603148E+04    1.3335322E+06
    0.52   500.000   -1.263E+02    1.3448215E+06   -1.0543122E+04   -2.3626707E+04    1.3011608E+06    1.0543127E+04    1.3448215E+06
    0.53   500.000   -1.268E+02    1.3590005E+06   -1.0472232E+04   -2.5392526E+04    1.3190509E+06    1.0472238E+04    1.3590005E+06
    0.54   500.000   -1.274E+02    1.3758828E+06   -1.0374013E+04   -2.6956979E+04    1.3407183E+06    1.0374019E+04    1.3758829E+06
    0.55   500.000   -1.279E+02    1.3951711E+06   -1.0230244E+04   -2.8193348E+04    1.3656725E+06    1.0230250E+04    1.3951711E+06
    0.56   500.000   -1.285E+02    1.4164467E+06   -1.0027065E+04   -2.9016869E+04    1.3932509E+06    1.0027072E+04    1.4164468E+06
    0.57   500.000   -1.290E+02    1.4391728E+06   -9.7602532E+03   -2.9401355E+04    1.4226602E+06    9.7602597E+03    1.4391728E+06
    0.58   500.000   -1.296E+02    1.4627040E+06   -9.4371898E+03   -2.9388822E+04    1.4530217E+06    9.4371963E+03    1.4627041E+06
    0.59   500.000   -1.301E+02    1.4863070E+06   -9.0743157E+03   -2.9091710E+04    1.4834091E+06    9.0743223E+03    1.4863070E+06
    0.60   500.000   -1.307E+02    1.5091907E+06   -8.6908593E+03   -2.8687304E+04    1.5128769E+06    8.6908660E+03    1.5091907E+06
    0.61   500.000   -1.312E+02    1.5305531E+06   -8.3012933E+03   -2.8403236E+04    1.5404847E+06    8.3013001E+03    1.5305532E+06
    0.62   500.000   -1.318E+02    1.5496406E+06   -7.9094596E+03   -2.8492852E+04    1.5653297E+06    7.9094661E+03    1.5496406E+06
    0.63   500.000   -1.324E+02    1.5658164E+06   -7.5065254E+03   -2.9201247E+04    1.5865964E+06    7.5065314E+03    1.5658164E+06
    0.64   500.000   -1.329E+02    1.5786283E+06   -7.0734006E+03   -3.0726539E+04    1.6036248E+06    7.0734057E+03    1.5786283E+06
    0.65   500.000   -1.335E+02    1.5878612E+06   -6.5866861E+03   -3.3184419E+04    1.6159920E+06    6.5866898E+03    1.5878612E+06
    0.66   500.000   -1.341E+02    1.5935668E+06   -6.0262278E+03   -3.6584979E+04    1.6235887E+06    6.0262297E+03    1.5935668E+06
    0.67   500.000   -1.347E+02    1.5960645E+06   -5.3820784E+03   -4.0828351E+04    1.6266734E+06    5.3820780E+03    1.5960645E+06
    0.68   500.000   -1.352E+02    1.5959169E+06   -4.6589996E+03   -4.5720448E+04    1.6258852E+06    4.6589967E+03    1.5959169E+06
    0.69   500.000   -1.358E+02    1.5938848E+06   -3.8774394E+03   -5.1004301E+04    1.6222044E+06    3.8774338E+03    1.5938849E+06
    0.70   500.000   -1.364E+02    1.5908661E+06   -3.0710664E+03   -5.6398522E+04    1.6168622E+06    3.0710581E+03    1.5908661E+06
    0.71   500.000   -1.371E+02    1.5878192E+06   -2.2820818E+03   -6.1634118E+04    1.6112106E+06    2.2820710E+03    1.5878192E+06
    0.72   500.000   -1.377E+02    1.5856758E+06   -1.5560596E+03   -6.6483646E+04    1.6065726E+06    1.5560468E+03    1.5856758E+06
    0.73   500.000   -1.383E+02    1.5852477E+06   -9.3762088E+02   -7.0780497E+04    1.6040972E+06    9.3760638E+02    1.5852478E+06
    0.74   500.000   -1.390E+02    1.5871357E+06   -4.6713228E+02   -7.4428469E+04    1.6046352E+06    4.6711658E+02    1.5871358E+06
    0.75   500.000   -1.396E+02    1.5916522E+06   -1.7765338E+02   -7.7402258E+04    1.6086472E+06    1.7763699E+02    1.5916522E+06
    0.76   500.000   -1.403E+02    1.5987677E+06   -9.1196977E+01   -7.9739250E+04    1.6161498E+06    9.1180370E+01    1.5987677E+06
    0.77   500.000   -1.410E+02    1.6080922E+06   -2.1406647E+02   -8.1523547E+04    1.6267036E+06    2.1405006E+02    1.6080923E+06
    0.78   500.000   -1.417E+02    1.6189011E+06   -5.3215203E+02   -8.2864956E+04    1.6394490E+06    5.3213612E+02    1.6189012E+06
    0.79   500.000   -1.425E+02    1.6302057E+06   -1.0080510E+03   -8.3877821E+04    1.6531923E+06    1.0080358E+03    1.6302057E+06
    0.80   500.000   -1.433E+02    1.6408616E+06   -1.5822575E+03   -8.4665255E+04    1.6665389E+06    1.5822431E+03    1.6408617E+06
    0.81   500.000   -1.441E+02    1.6496971E+06   -2.1800713E+03   -8.5312505E+04    1.6780561E+06    2.1800577E+03    1.6496972E+06
    0.82   500.000   -1.449E+02    1.6556375E+06   -2.7241857E+03   -8.5889142E+04    1.6864383E+06    2.7241730E+03    1.6556375E+06
    0.83   500.000   -1.457E+02    1.6578100E+06   -3.1505259E+03   -8.6455553E+04    1.6906454E+06    3.1505139E+03    1.6578101E+06
    0.84   500.000   -1.466E+02    1.6556174E+06   -3.4228323E+03   -8.7067403E+04    1.6899935E+06    3.4228211E+03    1.6556175E+06
    0.85   500.000   -1.475E+02    1.6487766E+06   -3.5409708E+03   -8.7773583E+04    1.6841895E+06    3.5409605E+03    1.6487767E+06
    0.86   500.000   -1.485E+02    1.6373237E+06   -3.5396966E+03   -8.8607702E+04    1.6733177E+06    3.5396873E+03    1.6373238E+06
    0.87   500.000   -1.494E+02    1.6215836E+06   -3.4781286E+03   -8.9577197E+04    1.6577869E+06    3.4781205E+03    1.6215836E+06
    0.88   500.000   -1.504E+02    1.6021071E+06   -3.4238006E+03   -9.0655214E+04    1.6382513E+06    3.4237940E+03    1.6021072E+06
    0.89   500.000   -1.515E+02    1.5795836E+06   -3.4369213E+03   -9.1778374E+04    1.6155143E+06    3.4369164E+03    1.5795836E+06
    0.90   500.000   -1.525E+02    1.5547448E+06   -3.5595166E+03   -9.2850680E+04    1.5904276E+06    3.5595136E+03    1.5547449E+06
    0.91   500.000   -1.536E+02    1.5282858E+06   -3.8112835E+03   -9.3752412E+04    1.5638006E+06    3.8112825E+03    1.5282859E+06
    0.92   500.000   -1.548E+02    1.5008185E+06   -4.1910897E+03   -9.4352983E+04    1.5363379E+06    4.1910908E+03    1.5008186E+06
    0.93   500.000   -1.559E+02    1.4728672E+06   -4.6816194E+03   -9.4526933E+04    1.5086117E+06    4.6816227E+03    1.4728673E+06
    0.94   500.000   -1.571E+02    1.4448950E+06   -5.2549165E+03   -9.4171175E+04    1.4810694E+06    5.2549219E+03    1.4448951E+06
    0.95   500.000   -1.584E+02    1.4173396E+06   -5.8776560E+03   -9.3220184E+04    1.4540626E+06    5.8776632E+03    1.4173396E+06
    0.96   500.000   -1.596E+02    1.3906377E+06   -6.5158582E+03   -9.1655561E+04    1.4278831E+06    6.5158670E+03    1.3906378E+06
    0.97   500.000   -1.609E+02    1.3652254E+06   -7.1390072E+03   -8.9508038E+04    1.4027889E+06    7.1390171E+03    1.3652255E+06
    0.98   500.000   -1.622E+02    1.3415146E+06   -7.7233765E+03   -8.6852265E+04    1.3790158E+06    7.7233871E+03    1.3415147E+06
    0.99   500.000   -1.635E+02    1.3198584E+06   -8.2542533E+03   -8.3796169E+04    1.3567706E+06    8.2542641E+03    1.3198585E+06
    1.00   500.000   -1.648E+02    1.3005188E+06   -8.7268519E+03   -8.0466819E+04    1.3362128E+06    8.7268621E+03    1.3005188E+06
    1.01   500.000   -1.660E+02    1.2836477E+06   -9.1459408E+03   -7.6994541E+04    1.3174305E+06    9.1459500E+03    1.2836477E+06
    1.02   500.000   -1.673E+02    1.2692861E+06   -9.5244052E+03   -7.3497315E+04    1.3004248E+06    9.5244127E+03    1.2692861E+06
    1.03   500.000   -1.686E+02    1.2573816E+06   -9.8810221E+03   -7.0068210E+04    1.2851122E+06    9.8810276E+03    1.2573817E+06
    1.04   500.000   -1.698E+02    1.2478219E+06   -1.0237608E+04   -6.6768768E+04    1.2713554E+06    1.0237611E+04    1.2478219E+06
    1.05   500.000   -1.710E+02    1.2404807E+06   -1.0615489E+04   -6.3630213E+04    1.2590203E+06    1.0615489E+04    1.2404807E+06
    1.06   500.000   -1.722E+02    1.2352689E+06   -1.1031223E+04   -6.0662352E+04    1.2480458E+06    1.1031221E+04    1.2352690E+06
    1.07   500.000   -1.733E+02    1.2321777E+06   -1.1491894E+04   -5.7867872E+04    1.2385021E+06    1.1491890E+04    1.2321777E+06
    1.08   500.000   -1.744E+02    1.2312979E+06   -1.1990931E+04   -5.5258046E+04    1.2306143E+06    1.1990924E+04    1.2312980E+06
    1.09   500.000   -1.755E+02    1.2328082E+06   -1.2505830E+04   -5.2864956E+04    1.2247400E+06    1.2505820E+04    1.2328082E+06
    1.10   500.000   -1.765E+02    1.2369299E+06   -1.2999028E+04   -5.0745643E+04    1.2213033E+06    1.2999017E+04    1.2369299E+06
    1.11   500.000   -1.775E+02    1.2438622E+06   -1.3422397E+04   -4.8975736E+04    1.2207091E+06    1.3422384E+04    1.2438622E+06
    1.12   500.000   -1.785E+02    1.2537153E+06   -1.3724852E+04   -4.7634268E+04    1.2232618E+06    1.3724838E+04    1.2537154E+06
    1.13   500.000   -1.795E+02    1.2664586E+06   -1.3861644E+04   -4.6786047E+04    1.2291115E+06    1.3861629E+04    1.2664586E+06
    1.14   500.000   -1.804E+02    1.2818958E+06   -1.3803275E+04   -4.6469972E+04    1.2382373E+06    1.3803259E+04    1.2818958E+06
    1.15   500.000   -1.813E+02    1.2996710E+06   -1.3541781E+04   -4.6699006E+04    1.2504621E+06    1.3541765E+04    1.2996710E+06
    1.16   500.000   -1.821E+02    1.3193019E+06   -1.3092414E+04   -4.7470744E+04    1.2654861E+06    1.3092398E+04    1.3193019E+06
    1.17   500.000   -1.830E+02    1.3402313E+06   -1.2489725E+04   -4.8780713E+04    1.2829216E+06    1.2489710E+04    1.3402313E+06
    1.18   500.000   -1.838E+02    1.3618861E+06   -1.1778649E+04   -5.0628314E+04    1.3023205E+06    1.1778634E+04    1.3618861E+06
    1.19   500.000   -1.846E+02    1.3837282E+06   -1.1003020E+04   -5.3009173E+04    1.3231896E+06    1.1003005E+04    1.3837282E+06
    1.20   500.000   -1.855E+02    1.4052896E+06   -1.0195288E+04   -5.5895330E+04    1.3449972E+06    1.0195275E+04    1.4052896E+06
    1.21   500.000   -1.862E+02    1.4261866E+06   -9.3710660E+03   -5.9211520E+04    1.3671777E+06    9.3710542E+03    1.4261866E+06
    1.22   500.000   -1.870E+02    1.4461176E+06   -8.5303410E+03   -6.2818073E+04    1.3891379E+06    8.5303308E+03    1.4461176E+06
    1.23   500.000   -1.878E+02    1.4648573E+06   -7.6645047E+03   -6.6508188E+04    1.4102728E+06    7.6644964E+03    1.4648573E+06
    1.24   500.000   -1.886E+02    1.4822592E+06   -6.7661293E+03   -7.0021474E+04    1.4299975E+06    6.7661233E+03    1.4822592E+06
    1.25   500.000   -1.893E+02    1.4982784E+06   -5.8377856E+03   -7.3069955E+04    1.4478004E+06    5.8377820E+03    1.4982783E+06
    1.26   500.000   -1.901E+02    1.5130132E+06   -4.8971928E+03   -7.5369628E+04    1.4633205E+06    4.8971919E+03    1.5130132E+06
    1.27   500.000   -1.909E+02    1.5267542E+06   -3.9777738E+03   -7.6670954E+04    1.4764380E+06    3.9777757E+03    1.5267542E+06
    1.28   500.000   -1.916E+02    1.5400199E+06   -3.1252612E+03   -7.6784285E+04    1.4873574E+06    3.1252659E+03    1.5400199E+06
    1.29   500.000   -1.924E+02    1.5535578E+06   -2.3918386E+03   -7.5599071E+04    1.4966540E+06    2.3918462E+03    1.5535578E+06
    1.30   500.000   -1.931E+02    1.5683004E+06   -1.8294092E+03   -7.3096754E+04    1.5052629E+06    1.8294195E+03    1.5683004E+06
    1.31   500.000   -1.939E+02    1.5852798E+06   -1.4831763E+03   -6.9356178E+04    1.5144023E+06    1.4831892E+03    1.5852797E+06
    1.32   500.000   -1.946E+02    1.6055169E+06   -1.3860393E+03   -6.4548543E+04    1.5254465E+06    1.3860546E+03    1.6055169E+06
    1.33   500.000   -1.954E+02    1.6299124E+06   -1.5536686E+03   -5.8918922E+04    1.5397736E+06    1.5536862E+03    1.6299123E+06
    1.34   500.000   -1.961E+02    1.6591567E+06   -1.9800010E+03   -5.2754439E+04    1.5586185E+06    1.9800209E+03    1.6591567E+06
    1.35   500.000   -1.969E+02    1.6936768E+06   -2.6335587E+03   -4.6344212E+04    1.5829575E+06    2.6335809E+03    1.6936768E+06
    1.36   500.000   -1.977E+02    1.7336201E+06   -3.4561118E+03   -3.9940350E+04    1.6134395E+06    3.4561364E+03    1.7336201E+06
    1.37   500.000   -1.984E+02    1.7788754E+06   -4.3658221E+03   -3.3730150E+04    1.6503693E+06    4.3658494E+03    1.7788754E+06
    1.38   500.000   -1.992E+02    1.8291214E+06   -5.2662032E+03   -2.7826722E+04    1.6937355E+06    5.2662335E+03    1.8291213E+06
    1.39   500.000   -2.000E+02    1.8838913E+06   -6.0599913E+03   -2.2279936E+04    1.7432676E+06    6.0600248E+03    1.8838913E+06
    1.40   500.000   -2.008E+02    1.9426372E+06   -6.6645130E+03   -1.7103648E+04    1.7984978E+06    6.6645499E+03    1.9426371E+06
    1.41   500.000   -2.016E+02    2.0047778E+06   -7.0240140E+03   -1.2310290E+04    1.8588102E+06    7.0240545E+03    2.0047778E+06
    1.42   500.000   -2.024E+02    2.0697253E+06   -7.1155376E+03   -7.9414837E+03    1.9234688E+06    7.1155816E+03    2.0697253E+06
    1.43   500.000   -2.032E+02    2.1368943E+06   -6.9476087E+03   -4.0843219E+03    1.9916334E+06    6.9476560E+03    2.1368943E+06
    1.44   500.000   -2.040E+02    2.2057131E+06   -6.5534698E+03   -8.6715407E+02    2.0623885E+06    6.5535201E+03    2.2057131E+06
    1.45   500.000   -2.048E+02    2.2756524E+06   -5.9816331E+03    1.5654597E+03    2.1348054E+06    5.9816858E+03    2.2756524E+06
    1.46   500.000   -2.057E+02    2.3462769E+06   -5.2861230E+03    3.0931118E+03    2.2080471E+06    5.2861775E+03    2.3462769E+06
    1.47   500.000   -2.065E+02    2.4173070E+06   -4.5179355E+03    3.6650159E+03    2.2815012E+06    4.5179911E+03    2.4173069E+06
    1.48   500.000   -2.073E+02    2.4886691E+06   -3.7186041E+03    3.3373531E+03    2.3549086E+06    3.7186600E+03    2.4886690E+06
    1.49   500.000   -2.082E+02    2.5605172E+06   -2.9162622E+03    2.2888993E+03    2.4284522E+06    2.9163177E+03    2.5605172E+06
    1.50   500.000   -2.090E+02    2.6332197E+06   -2.1239491E+03    8.0485529E+02    2.5027785E+06    2.1240037E+03    2.6332197E+06
    1.51   500.000   -2.099E+02    2.7073170E+06   -1.3393146E+03   -7.7355248E+02    2.5789362E+06    1.3393678E+03    2.7073169E+06
    1.52   500.000   -2.107E+02    2.7834613E+06   -5.4489537E+02   -2.1259249E+03    2.6582314E+06    5.4494699E+02    2.7834612E+06
    1.53   500.000   -2.116E+02    2.8623464E+06    2.9097410E+02   -3.0382100E+03    2.7420118E+06   -2.9092429E+02    2.8623463E+06
    1.54   500.000   -2.124E+02    2.9446317E+06    1.2112297E+03   -3.4721847E+03    2.8314067E+06   -1.2111818E+03    2.9446316E+06
    1.55   500.000   -2.133E+02    3.0308659E+06    2.2629460E+03   -3.5932990E+03    2.9270689E+06   -2.2629002E+03    3.0308658E+06
    1.56   500.000   -2.142E+02    3.1214128E+06    3.4846051E+03   -3.7392152E+03    3.0289719E+06   -3.4845614E+03    3.1214127E+06
    1.57   500.000   -2.150E+02    3.2163855E+06    4.8890248E+03   -4.3289038E+03    3.1363138E+06   -4.8889834E+03    3.2163854E+06
    1.58   500.000   -2.159E+02    3.3155922E+06    6.4467778E+03   -5.7349204E+03    3.2475642E+06   -6.4467389E+03    3.3155921E+06
    1.59   500.000   -2.168E+02    3.4185019E+06    8.0772964E+03   -8.1596657E+03    3.3606570E+06   -8.0772603E+03    3.4185019E+06
    1.60   500.000   -2.176E+02    3.5242356E+06    9.6539921E+03   -1.1559566E+04    3.4732963E+06   -9.6539590E+03    3.5242355E+06
    1.61   500.000   -2.185E+02    3.6315907E+06    1.1025211E+04   -1.5645323E+04    3.5833107E+06   -1.1025182E+04    3.6315906E+06
    1.62   500.000   -2.193E+02    3.7391027E+06    1.2046516E+04   -1.9957836E+04    3.6889704E+06   -1.2046490E+04    3.7391026E+06
    1.63   500.000   -2.201E+02    3.8451411E+06    1.2614770E+04   -2.3991184E+04    3.7891927E+06   -1.2614747E+04    3.8451410E+06
    1.64   500.000   -2.210E+02    3.9480334E+06    1.2693450E+04   -2.7318581E+04    3.8835974E+06   -1.2693432E+04    3.9480333E+06
    1.65   500.000   -2.218E+02    4.0462065E+06    1.2321884E+04   -2.9680334E+04    3.9724290E+06   -1.2321871E+04    4.0462064E+06
    1.66   500.000   -2.226E+02    4.1383372E+06    1.1606728E+04   -3.1011521E+04    4.0564062E+06   -1.1606718E+04    4.1383372E+06
    1.67   500.000   -2.234E+02    4.2235015E+06    1.0699033E+04   -3.1411926E+04    4.1365733E+06   -1.0699028E+04    4.2235015E+06
    1.68   500.000   -2.242E+02    4.3013128E+06    9.7630638E+03   -3.1080683E+04    4.2142053E+06   -9.7630630E+03    4.3013128E+06
    1.69   500.000   -2.251E+02    4.3720276E+06    8.9437568E+03   -3.0245096E+04    4.2907684E+06   -8.9437600E+03    4.3720275E+06
    1.70   500.000   -2.258E+02    4.4365866E+06    8.3395665E+03   -2.9105959E+04    4.3678909E+06   -8.3395736E+03    4.4365866E+06
    1.71   500.000   -2.266E+02    4.4965576E+06    7.9865761E+03   -2.7806392E+04    4.4472821E+06   -7.9865867E+03    4.4965576E+06
    1.72   500.000   -2.274E+02    4.5539570E+06    7.8576198E+03   -2.6417646E+04    4.5305510E+06   -7.8576339E+03    4.5539570E+06
    1.73   500.000   -2.282E+02    4.6109646E+06    7.8762897E+03   -2.4931165E+04    4.6189246E+06   -7.8763072E+03    4.6109646E+06
    1.74   500.000   -2.290E+02    4.6695808E+06    7.9410934E+03   -2.3252039E+04    4.7129158E+06   -7.9411142E+03    4.6695808E+06
    1.75   500.000   -2.297E+02    4.7313098E+06    7.9518728E+03   -2.1198657E+04    4.8120351E+06   -7.9518966E+03    4.7313098E+06
    1.76   500.000   -2.305E+02    4.7969531E+06    7.8307516E+03   -1.8519042E+04    4.9146463E+06   -7.8307783E+03    4.7969531E+06
    1.77   500.000   -2.313E+02    4.8665652E+06    7.5333504E+03   -1.4932101E+04    5.0180417E+06   -7.5333794E+03    4.8665653E+06
    1.78   500.000   -2.321E+02    4.9395683E+06    7.0506829E+03   -1.0193396E+04    5.1187578E+06   -7.0507137E+03    4.9395684E+06
    1.79   500.000   -2.328E+02    5.0149632E+06    6.4052350E+03   -4.1747196E+03    5.2130817E+06   -6.4052667E+03    5.0149633E+06
    1.80   500.000   -2.336E+02    5.0915430E+06    5.6447967E+03    3.0615548E+03    5.2976377E+06   -5.6448286E+03    5.0915430E+06
    1.81   500.000   -2.344E+02    5.1680303E+06    4.8355586E+03    1.1216673E+04    5.3699080E+06   -4.8355899E+03    5.1680304E+06
    1.82   500.000   -2.351E+02    5.2431089E+06    4.0539127E+03    1.9760256E+04    5.4285578E+06   -4.0539428E+03    5.2431090E+06
    1.83   500.000   -2.359E+02    5.3153834E+06    3.3758579E+03    2.7998227E+04    5.4735007E+06   -3.3758864E+03    5.3153835E+06
    1.84   500.000   -2.367E+02    5.3833430E+06    2.8639109E+03    3.5198338E+04    5.5057264E+06   -2.8639378E+03    5.3833431E+06
    1.85   500.000   -2.374E+02    5.4454042E+06    2.5530865E+03    4.0745652E+04    5.5269996E+06   -2.5531118E+03    5.4454043E+06
    1.86   500.000   -2.382E+02    5.5000657E+06    2.4390153E+03    4.4284509E+04    5.5395656E+06   -2.4390393E+03    5.5000657E+06
    1.87   500.000   -2.389E+02    5.5461550E+06    2.4720816E+03    4.5803141E+04    5.5459661E+06   -2.4721044E+03    5.5461551E+06
    1.88   500.000   -2.397E+02    5.5831028E+06    2.5610053E+03    4.5633929E+04    5.5489847E+06   -2.5610269E+03    5.5831028E+06
    1.89   500.000   -2.404E+02    5.6111637E+06    2.5871128E+03    4.4369233E+04    5.5516600E+06   -2.5871330E+03    5.6111637E+06
    1.90   500.000   -2.412E+02    5.6315232E+06    2.4271325E+03    4.2718606E+04    5.5572585E+06   -2.4271508E+03    5.6315232E+06
    1.91   500.000   -2.419E+02    5.6462568E+06    1.9794314E+03    4.1348686E+04    5.5691170E+06   -1.9794473E+03    5.6462568E+06
    1.92   500.000   -2.426E+02    5.6581479E+06    1.1878807E+03    4.0748458E+04    5.5903315E+06   -1.1878933E+03    5.6581480E+06
    1.93   500.000   -2.434E+02    5.6703944E+06    5.8931423E+01    4.1151977E+04    5.6233507E+06   -5.8940083E+01    5.6703944E+06
    1.94   500.000   -2.441E+02    5.6862537E+06   -1.3308702E+03    4.2533139E+04    5.6695953E+06    1.3308661E+03    5.6862537E+06
    1.95   500.000   -2.448E+02    5.7086824E+06   -2.8394189E+03    4.4667883E+04    5.7292287E+06    2.8394198E+03    5.7086824E+06
    1.96   500.000   -2.455E+02    5.7400216E+06   -4.2784493E+03    4.7242234E+04    5.8011611E+06    4.2784552E+03    5.7400217E+06
    1.97   500.000   -2.462E+02    5.7817654E+06   -5.4488032E+03    4.9973112E+04    5.8832878E+06    5.4488139E+03    5.7817654E+06
    1.98   500.000   -2.469E+02    5.8344276E+06   -6.1869213E+03    5.2706191E+04    5.9728876E+06    6.1869363E+03    5.8344276E+06
    1.99   500.000   -2.475E+02    5.8975059E+06   -6.4103082E+03    5.5462692E+04    6.0670646E+06    6.4103264E+03    5.8975060E+06
    2.00   500.000   -2.482E+02    5.9695283E+06   -6.1451923E+03    5.8422948E+04    6.1631200E+06    6.1452128E+03    5.9695283E+06
    2.01   500.000   -2.489E+02    6.0481677E+06   -5.5227634E+03    6.1852999E+04    6.2587770E+06    5.5227849E+03    6.0481678E+06
    2.02   500.000   -2.495E+02    6.1304152E+06   -4.7415328E+03    6.5995788E+04    6.3522383E+06    4.7415541E+03    6.1304152E+06
    2.03   500.000   -2.502E+02    6.2128039E+06   -4.0076243E+03    7.0957046E+04    6.4421018E+06    4.0076443E+03    6.2128040E+06
    2.04   500.000   -2.509E+02    6.2916779E+06   -3.4746547E+03    7.6616510E+04    6.5271914E+06    3.4746726E+03    6.2916780E+06
    2.05   500.000   -2.515E+02    6.3634837E+06   -3.2048626E+03    8.2588020E+04    6.6063718E+06    3.2048779E+03    6.3634838E+06
    2.06   500.000   -2.522E+02    6.4250560E+06   -3.1633172E+03    8.8239274E+04    6.6784085E+06    3.1633299E+03    6.4250561E+06
    2.07   500.000   -2.528E+02    6.4738613E+06   -3.2428796E+03    9.2767507E+04    6.7419164E+06    3.2428901E+03    6.4738614E+06
    2.08   500.000   -2.534E+02    6.5081723E+06   -3.3064785E+03    9.5315620E+04    6.7954051E+06    3.3064874E+03    6.5081723E+06
    2.09   500.000   -2.541E+02    6.5271561E+06   -3.2299077E+03    9.5106736E+04    6.8373943E+06    3.2299160E+03    6.5271562E+06
    2.10   500.000   -2.547E+02    6.5308686E+06   -2.9324217E+03    9.1573546E+04    6.8665457E+06    2.9324302E+03    6.5308687E+06
    2.11   500.000   -2.554E+02    6.5201528E+06   -2.3899554E+03    8.4459920E+04    6.8817596E+06    2.3899650E+03    6.5201528E+06
    2.12   500.000   -2.560E+02    6.4964492E+06   -1.6326680E+03    7.3875400E+04    6.8822155E+06    1.6326793E+03    6.4964492E+06
    2.13   500.000   -2.566E+02    6.4615447E+06   -7.3241048E+02    6.0289322E+04    6.8673694E+06    7.3242382E+02    6.4615447E+06
    2.14   500.000   -2.572E+02    6.4173032E+06    2.1379284E+02    4.4462167E+04    6.8369439E+06   -2.1377746E+02    6.4173032E+06
    2.15   500.000   -2.578E+02    6.3654341E+06    1.1002885E+03    2.7326404E+04    6.7909423E+06   -1.1002713E+03    6.3654341E+06
    2.16   500.000   -2.584E+02    6.3073432E+06    1.8282643E+03    9.8431116E+03    6.7296897E+06   -1.8282456E+03    6.3073432E+06
    2.17   500.000   -2.590E+02    6.2440878E+06    2.3203162E+03   -7.1318491E+03    6.6538793E+06   -2.3202963E+03    6.2440878E+06
    2.18   500.000   -2.596E+02    6.1764235E+06    2.5330311E+03   -2.2941243E+04    6.5645863E+06   -2.5330101E+03    6.1764235E+06
    2.19   500.000   -2.602E+02    6.1049134E+06    2.4643216E+03   -3.7161631E+04    6.4632283E+06   -2.4642995E+03    6.1049133E+06
    2.20   500.000   -2.608E+02    6.0300663E+06    2.1518735E+03   -4.9581497E+04    6.3514854E+06   -2.1518502E+03    6.0300663E+06
    2.21   500.000   -2.614E+02    5.9524849E+06    1.6617076E+03   -6.0141569E+04    6.2312286E+06   -1.6616826E+03    5.9524849E+06
    2.22   500.000   -2.619E+02    5.8730095E+06    1.0700685E+03   -6.8866158E+04    6.1045121E+06   -1.0700414E+03    5.8730095E+06
    2.23   500.000   -2.625E+02    5.7928434E+06    4.4497451E+02   -7.5810823E+04    5.9736550E+06   -4.4494500E+02    5.7928433E+06
    2.24   500.000   -2.630E+02    5.7136306E+06   -1.6597367E+02   -8.1037178E+04    5.8413784E+06    1.6600585E+02    5.7136306E+06
    2.25   500.000   -2.635E+02    5.6374521E+06   -7.3749533E+02   -8.4608538E+04    5.7109114E+06    7.3753026E+02    5.6374521E+06
    2.26   500.000   -2.641E+02    5.5667109E+06   -1.2583805E+03   -8.6589922E+04    5.5859714E+06    1.2584181E+03    5.5667109E+06
    2.27   500.000   -2.646E+02    5.5039081E+06   -1.7173275E+03   -8.7037261E+04    5.4705590E+06    1.7173676E+03    5.5039081E+06
    2.28   500.000   -2.651E+02    5.4513446E+06   -2.0896028E+03   -8.5971361E+04    5.3685890E+06    2.0896451E+03    5.4513446E+06
    2.29   500.000   -2.656E+02    5.4108200E+06   -2.3311095E+03   -8.3345999E+04    5.2834448E+06    2.3311535E+03    5.4108200E+06
    2.30   500.000   -2.661E+02    5.3834089E+06   -2.3834559E+03   -7.9029846E+04    5.2175805E+06    2.3835013E+03    5.3834089E+06
    2.31   500.000   -2.666E+02    5.3693703E+06   -2.1886536E+03   -7.2822656E+04    5.1722650E+06    2.1886998E+03    5.3693702E+06
    2.32   500.000   -2.671E+02    5.3681858E+06   -1.7071560E+03   -6.4514839E+04    5.1474990E+06    1.7072025E+03    5.3681858E+06
    2.33   500.000   -2.676E+02    5.3786670E+06   -9.3079107E+02   -5.3980285E+04    5.1420692E+06    9.3083745E+02    5.3786670E+06
    2.34   500.000   -2.681E+02    5.3990488E+06    1.1541696E+02   -4.1274837E+04    5.1536658E+06   -1.1537107E+02    5.3990488E+06
    2.35   500.000   -2.686E+02    5.4270195E+06    1.3823269E+03   -2.6707021E+04    5.1790040E+06   -1.3822818E+03    5.4270195E+06
    2.36   500.000   -2.690E+02    5.4596999E+06    2.8102730E+03   -1.0855927E+04    5.2139337E+06   -2.8102289E+03    5.4596999E+06
    2.37   500.000   -2.695E+02    5.4936392E+06    4.3388515E+03    5.4711455E+03    5.2535754E+06   -4.3388085E+03    5.4936392E+06
    2.38   500.000   -2.700E+02    5.5249124E+06    5.9081783E+03    2.1330098E+04    5.2925438E+06   -5.9081366E+03    5.5249125E+06
    2.39   500.000   -2.705E+02    5.5493721E+06    7.4533003E+03    3.5757573E+04    5.3253158E+06   -7.4532601E+03    5.5493721E+06
    2.40   500.000   -2.710E+02    5.5630493E+06    8.8982177E+03    4.7891057E+04    5.3467410E+06   -8.8981793E+03    5.5630494E+06
    2.41   500.000   -2.715E+02    5.5626391E+06    1.0156293E+04    5.7076569E+04    5.3526268E+06   -1.0156256E+04    5.5626391E+06
    2.42   500.000   -2.719E+02    5.5459644E+06    1.1140015E+04    6.2958293E+04    5.3402640E+06   -1.1139981E+04    5.5459645E+06
    2.43   500.000   -2.724E+02    5.5123106E+06    1.1777893E+04    6.5545463E+04    5.3087563E+06   -1.1777862E+04    5.5123107E+06
    2.44   500.000   -2.729E+02    5.4625525E+06    1.2032715E+04    6.5243115E+04    5.2590704E+06   -1.2032687E+04    5.4625526E+06
    2.45   500.000   -2.734E+02    5.3990568E+06    1.1915179E+04    6.2824522E+04    5.1938181E+06   -1.1915154E+04    5.3990569E+06
    2.46   500.000   -2.738E+02    5.3254008E+06    1.1489260E+04    5.9326912E+04    5.1168639E+06   -1.1489239E+04    5.3254009E+06
    2.47   500.000   -2.743E+02    5.2459852E+06    1.0868565E+04    5.5873083E+04    5.0328759E+06   -1.0868547E+04    5.2459853E+06
    2.48   500.000   -2.748E+02    5.1656142E+06    1.0204735E+04    5.3451090E+04    4.9469060E+06   -1.0204719E+04    5.1656142E+06
    2.49   500.000   -2.753E+02    5.0890820E+06    9.6696984E+03    5.2706429E+04    4.8640227E+06   -9.6696854E+03    5.0890821E+06
    2.50   500.000   -2.757E+02    5.0207700E+06    9.4341272E+03    5.3803763E+04    4.7889710E+06   -9.4341162E+03    5.0207701E+06
    2.51   500.000   -2.762E+02    4.9642528E+06    9.6451219E+03    5.6397199E+04    4.7258320E+06   -9.6451123E+03    4.9642529E+06
    2.52   500.000   -2.767E+02    4.9219449E+06    1.0406271E+04    5.9718571E+04    4.6776841E+06   -1.0406262E+04    4.9219449E+06
    2.53   500.000   -2.771E+02    4.8948564E+06    1.1762345E+04    6.2763443E+04    4.6463209E+06   -1.1762337E+04    4.8948564E+06
    2.54   500.000   -2.776E+02    4.8825463E+06    1.3689619E+04    6.4532294E+04    4.6321089E+06   -1.3689610E+04    4.8825463E+06
    2.55   500.000   -2.781E+02    4.8833298E+06    1.6092367E+04    6.4271946E+04    4.6340703E+06   -1.6092359E+04    4.8833298E+06
    2.56   500.000   -2.785E+02    4.8947303E+06    1.8806688E+04    6.1660529E+04    4.6502335E+06   -1.8806679E+04    4.8947304E+06
    2.57   500.000   -2.790E+02    4.9140918E+06    2.1613483E+04    5.6889899E+04    4.6782139E+06   -2.1613473E+04    4.9140919E+06
    2.58   500.000   -2.794E+02    4.9392100E+06    2.4261772E+04    5.0623172E+04    4.7159045E+06   -2.4261762E+04    4.9392100E+06
    2.59   500.000   -2.799E+02    4.9688308E+06    2.6501271E+04    4.3838269E+04    4.7620923E+06   -2.6501261E+04    4.9688308E+06
    2.60   500.000   -2.803E+02    5.0028951E+06    2.8120071E+04    3.7600922E+04    4.8168156E+06   -2.8120061E+04    5.0028951E+06
    2.61   500.000   -2.807E+02    5.0424740E+06    2.8980598E+04    3.2830291E+04    4.8813556E+06   -2.8980589E+04    5.0424740E+06
    2.62   500.000   -2.812E+02    5.0894167E+06    2.9045644E+04    3.0119075E+04    4.9578682E+06   -2.9045635E+04    5.0894167E+06
    2.63   500.000   -2.816E+02    5.1458030E+06    2.8387062E+04    2.9648380E+04    5.0487714E+06   -2.8387053E+04    5.1458029E+06
    2.64   500.000   -2.821E+02    5.2133429E+06    2.7173358E+04    3.1204963E+04    5.1560649E+06   -2.7173350E+04    5.2133429E+06
    2.65   500.000   -2.825E+02    5.2928843E+06    2.5638322E+04    3.4278155E+04    5.2807510E+06   -2.5638316E+04    5.2928843E+06
    2.66   500.000   -2.829E+02    5.3841543E+06    2.4038934E+04    3.8196801E+04    5.4224720E+06   -2.4038928E+04    5.3841543E+06
    2.67   500.000   -2.834E+02    5.4857815E+06    2.2614055E+04    4.2266025E+04    5.5793940E+06   -2.2614050E+04    5.4857815E+06
    2.68   500.000   -2.838E+02    5.5955354E+06    2.1554054E+04    4.5874592E+04    5.7482903E+06   -2.1554050E+04    5.5955354E+06
    2.69   500.000   -2.843E+02    5.7106357E+06    2.0986197E+04    4.8558436E+04    5.9247197E+06   -2.0986193E+04    5.7106357E+06
    2.70   500.000   -2.848E+02    5.8279686E+06    2.0974344E+04    5.0019463E+04    6.1031972E+06   -2.0974341E+04    5.8279686E+06
    2.71   500.000   -2.852E+02    5.9441178E+06    2.1527218E+04    5.0109097E+04    6.2773055E+06   -2.1527217E+04    5.9441178E+06
    2.72   500.000   -2.857E+02    6.0552347E+06    2.2608763E+04    4.8792233E+04    6.4397834E+06   -2.2608763E+04    6.0552348E+06
    2.73   500.000   -2.862E+02    6.1568699E+06    2.4146216E+04    4.6108004E+04    6.5826967E+06   -2.4146217E+04    6.1568699E+06
    2.74   500.000   -2.867E+02    6.2439166E+06    2.6034901E+04    4.2139584E+04    6.6978003E+06   -2.6034904E+04    6.2439167E+06
    2.75   500.000   -2.871E+02    6.3107780E+06    2.8141476E+04    3.6998869E+04    6.7771401E+06   -2.8141481E+04    6.3107780E+06
    2.76   500.000   -2.876E+02    6.3517788E+06    3.0308518E+04    3.0825962E+04    6.8138420E+06   -3.0308524E+04    6.3517788E+06
    2.77   500.000   -2.881E+02    6.3617649E+06    3.2362794E+04    2.3798699E+04    6.8029470E+06   -3.2362801E+04    6.3617649E+06
    2.78   500.000   -2.886E+02    6.3367761E+06    3.4127942E+04    1.6143424E+04    6.7421191E+06   -3.4127950E+04    6.3367761E+06
    2.79   500.000   -2.891E+02    6.2746579E+06    3.5440538E+04    8.1361414E+03    6.6320681E+06   -3.5440547E+04    6.2746579E+06
    2.80   500.000   -2.896E+02    6.1754857E+06    3.6167227E+04    8.5305859E+01    6.4765966E+06   -3.6167237E+04    6.1754857E+06
    2.81   500.000   -2.901E+02    6.0417085E+06    3.6219885E+04   -7.7049789E+03    6.2822492E+06   -3.6219896E+04    6.0417085E+06
    2.82   500.000   -2.906E+02    5.8779677E+06    3.5565544E+04   -1.4982152E+04    6.0576158E+06   -3.5565554E+04    5.8779677E+06
    2.83   500.000   -2.911E+02    5.6906153E+06    3.4228324E+04   -2.1585849E+04    5.8123906E+06   -3.4228335E+04    5.6906152E+06
    2.84   500.000   -2.916E+02    5.4870158E+06    3.2282253E+04   -2.7465234E+04    5.5563404E+06   -3.2282263E+04    5.4870158E+06
    2.85   500.000   -2.920E+02    5.2747688E+06    2.9836635E+04   -3.2665491E+04    5.2983605E+06   -2.9836644E+04    5.2747687E+06
    2.86   500.000   -2.925E+02    5.0609939E+06    2.7018609E+04   -3.7289715E+04    5.0457865E+06   -2.7018618E+04    5.0609939E+06
    2.87   500.000   -2.930E+02    4.8517965E+06    2.3958830E+04   -4.1453168E+04    4.8040704E+06   -2.3958839E+04    4.8517965E+06
    2.88   500.000   -2.935E+02    4.6519727E+06    2.0784539E+04   -4.5248483E+04    4.5768320E+06   -2.0784547E+04    4.6519727E+06
    2.89   500.000   -2.939E+02    4.4649564E+06    1.7620065E+04   -4.8732755E+04    4.3662064E+06   -1.7620073E+04    4.4649564E+06
    2.90   500.000   -2.944E+02    4.2929607E+06    1.4590210E+04   -5.1935256E+04    4.1733437E+06   -1.4590218E+04    4.2929607E+06
    2.91   500.000   -2.949E+02    4.1372459E+06    1.1819720E+04   -5.4874319E+04    3.9989101E+06   -1.1819728E+04    4.1372459E+06
    2.92   500.000   -2.954E+02    3.9984395E+06    9.4237349E+03   -5.7568219E+04    3.8434634E+06   -9.4237428E+03    3.9984395E+06
    2.93   500.000   -2.959E+02    3.8768428E+06    7.4890890E+03   -6.0028591E+04    3.7076369E+06   -7.4890971E+03    3.8768429E+06
    2.94   500.000   -2.963E+02    3.7726738E+06    6.0523687E+03   -6.2234154E+04    3.5921323E+06   -6.0523772E+03    3.7726739E+06
    2.95   500.000   -2.968E+02    3.6862098E+06    5.0844230E+03   -6.4093610E+04    3.4975786E+06   -5.0844318E+03    3.6862099E+06
    2.96   500.000   -2.973E+02    3.6178144E+06    4.4900844E+03   -6.5415456E+04    3.4243440E+06   -4.4900936E+03    3.6178144E+06
    2.97   500.000   -2.978E+02    3.5678535E+06    4.1260967E+03   -6.5904773E+04    3.3723764E+06   -4.1261062E+03    3.5678535E+06
    2.98   500.000   -2.983E+02    3.5365357E+06    3.8325767E+03   -6.5199999E+04    3.3411144E+06   -3.8325865E+03    3.5365358E+06
    2.99   500.000   -2.988E+02    3.5237344E+06    3.4679164E+03   -6.2947345E+04    3.3294727E+06   -3.4679265E+03    3.5237344E+06
    3.00   500.000   -2.993E+02    3.5288605E+06    2.9363504E+03   -5.8893311E+04    3.3358847E+06   -2.9363608E+03    3.5288606E+06
    3.01   500.000   -2.998E+02    3.5508399E+06    2.2009646E+03   -5.2965773E+04    3.3583862E+06   -2.2009754E+03    3.5508400E+06
    3.02   500.000   -3.003E+02    3.5882082E+06    1.2803381E+03   -4.5317328E+04    3.3947383E+06   -1.2803494E+03    3.5882082E+06
    3.03   500.000   -3.008E+02    3.6392977E+06    2.3211227E+02   -3.6319002E+04    3.4425981E+06   -2.3212434E+02    3.6392978E+06
    3.04   500.000   -3.013E+02    3.7024596E+06   -8.6966252E+02   -2.6509934E+04    3.4997341E+06    8.6964952E+02    3.7024596E+06
    3.05   500.000   -3.018E+02    3.7762520E+06   -1.9552253E+03   -1.6520447E+04    3.5642563E+06    1.9552112E+03    3.7762520E+06
    3.06   500.000   -3.023E+02    3.8595439E+06   -2.9710368E+03   -6.9880148E+03    3.6348031E+06    2.9710216E+03    3.8595439E+06
    3.07   500.000   -3.028E+02    3.9515027E+06   -3.8799656E+03    1.5199554E+03    3.7106160E+06    3.8799495E+03    3.9515028E+06
    3.08   500.000   -3.033E+02    4.0514677E+06   -4.6517322E+03    8.5701685E+03    3.7914588E+06    4.6517152E+03    4.0514678E+06
    3.09   500.000   -3.038E+02    4.1587338E+06   -5.2497791E+03    1.3912426E+04    3.8773763E+06    5.2497617E+03    4.1587338E+06
    3.10   500.000   -3.043E+02    4.2722918E+06   -5.6224355E+03    1.7511535E+04    3.9683432E+06    5.6224179E+03    4.2722918E+06
    3.11   500.000   -3.049E+02    4.3905850E+06   -5.7047612E+03    1.9557850E+04    4.0638890E+06    5.7047438E+03    4.3905851E+06
    3.12   500.000   -3.054E+02    4.5113488E+06   -5.4331023E+03    2.0451283E+04    4.1628056E+06    5.4330853E+03    4.5113488E+06
    3.13   500.000   -3.059E+02    4.6316003E+06   -4.7683723E+03    2.0756073E+04    4.2630325E+06    4.7683559E+03    4.6316003E+06
    3.14   500.000   -3.064E+02    4.7478258E+06   -3.7187171E+03    2.1128670E+04    4.3617748E+06    3.7187014E+03    4.7478259E+06
    3.15   500.000   -3.069E+02    4.8563686E+06   -2.3505017E+03    2.2226676E+04    4.4558458E+06    2.3504866E+03    4.8563686E+06
    3.16   500.000   -3.074E+02    4.9539529E+06   -7.8050601E+02    2.4611211E+04    4.5421545E+06    7.8049142E+02    4.9539529E+06
    3.17   500.000   -3.080E+02    5.0382214E+06    8.4919768E+02    2.8657822E+04    4.6182084E+06   -8.4921211E+02    5.0382214E+06
    3.18   500.000   -3.085E+02    5.1081284E+06    2.4034683E+03    3.4491731E+04    4.6824875E+06   -2.4034830E+03    5.1081284E+06
    3.19   500.000   -3.090E+02    5.1640649E+06    3.7796298E+03    4.1960844E+04    4.7345937E+06   -3.7796453E+03    5.1640649E+06
    3.20   500.000   -3.095E+02    5.2076715E+06    4.9165753E+03    5.0653306E+04    4.7751571E+06   -4.9165921E+03    5.2076715E+06
    3.21   500.000   -3.100E+02    5.2413998E+06    5.7869314E+03    5.9956028E+04    4.8055650E+06   -5.7869501E+03    5.2413998E+06
    3.22   500.000   -3.105E+02    5.2679549E+06    6.3804829E+03    6.9139839E+04    4.8276183E+06   -6.3805040E+03    5.2679549E+06
    3.23   500.000   -3.110E+02    5.2897661E+06    6.6902512E+03    7.7451052E+04    4.8432034E+06   -6.6902748E+03    5.2897661E+06
    3.24   500.000   -3.114E+02    5.3085889E+06    6.7091882E+03    8.4192193E+04    4.8540183E+06   -6.7092146E+03    5.3085889E+06
    3.25   500.000   -3.119E+02    5.3252780E+06    6.4382541E+03    8.8784824E+04    4.8613532E+06   -6.4382831E+03    5.3252780E+06
    3.26   500.000   -3.124E+02    5.3397228E+06    5.8999590E+03    9.0817695E+04    4.8659225E+06   -5.8999904E+03    5.3397228E+06
    3.27   500.000   -3.128E+02    5.3509323E+06    5.1483962E+03    9.0086018E+04    4.8677768E+06   -5.1484295E+03    5.3509323E+06
    3.28   500.000   -3.133E+02    5.3572641E+06    4.2682851E+03    8.6620943E+04    4.8663486E+06   -4.2683197E+03    5.3572641E+06
    3.29   500.000   -3.137E+02    5.3567959E+06    3.3605436E+03    8.0698989E+04    4.8606725E+06   -3.3605788E+03    5.3567959E+06
    3.30   500.000   -3.142E+02    5.3478061E+06    2.5180884E+03    7.2818327E+04    4.8497677E+06   -2.5181236E+03    5.3478060E+06
    3.31   500.000   -3.146E+02    5.3292790E+06    1.8002266E+03    6.3636642E+04    4.8330956E+06   -1.8002611E+03    5.3292789E+06
    3.32   500.000   -3.150E+02    5.3012997E+06    1.2151821E+03    5.3879696E+04    4.8109523E+06   -1.2152156E+03    5.3012997E+06
    3.33   500.000   -3.155E+02    5.2652063E+06    7.1760730E+02    4.4241309E+04    4.7846638E+06   -7.1763913E+02    5.2652063E+06
    3.34   500.000   -3.159E+02    5.2234317E+06    2.2258570E+02    3.5296951E+04    4.7565113E+06   -2.2261558E+02    5.2234317E+06
    3.35   500.000   -3.163E+02    5.1790761E+06   -3.6821700E+02    2.7444126E+04    4.7294049E+06    3.6818932E+02    5.1790761E+06
    3.36   500.000   -3.167E+02    5.1353411E+06   -1.1368669E+03    2.0870436E+04    4.7063948E+06    1.1368416E+03    5.1353411E+06
    3.37   500.000   -3.170E+02    5.0949915E+06   -2.1258560E+03    1.5543436E+04    4.6901350E+06    2.1258333E+03    5.0949915E+06
    3.38   500.000   -3.174E+02    5.0599689E+06   -3.3289767E+03    1.1218690E+04    4.6824141E+06    3.3289568E+03    5.0599689E+06
    3.39   500.000   -3.178E+02    5.0312167E+06   -4.6991221E+03    7.4692094E+03    4.6838497E+06    4.6991051E+03    5.0312168E+06
    3.40   500.000   -3.182E+02    5.0087075E+06   -6.1692819E+03    3.7424272E+03    4.6938220E+06    6.1692678E+03    5.0087075E+06
    3.41   500.000   -3.185E+02    4.9916285E+06   -7.6776391E+03   -5.5482616E+02    4.7106825E+06    7.6776277E+03    4.9916286E+06
    3.42   500.000   -3.189E+02    4.9786632E+06   -9.1860161E+03   -5.9541869E+03    4.7321988E+06    9.1860071E+03    4.9786633E+06
    3.43   500.000   -3.192E+02    4.9682949E+06   -1.0684066E+04   -1.2826246E+04    4.7561215E+06    1.0684059E+04    4.9682950E+06
    3.44   500.000   -3.195E+02    4.9590615E+06   -1.2178008E+04   -2.1303836E+04    4.7807032E+06    1.2178003E+04    4.9590616E+06
    3.45   500.000   -3.199E+02    4.9497083E+06   -1.3669085E+04   -3.1240929E+04    4.8050247E+06    1.3669080E+04    4.9497083E+06
    3.46   500.000   -3.202E+02    4.9392277E+06   -1.5130413E+04   -4.2211125E+04    4.8290528E+06    1.5130408E+04    4.9392277E+06
    3.47   500.000   -3.205E+02    4.9268270E+06   -1.6490911E+04   -5.3544776E+04    4.8534472E+06    1.6490905E+04    4.9268270E+06
    3.48   500.000   -3.208E+02    4.9118893E+06   -1.7632554E+04   -6.4402812E+04    4.8791942E+06    1.7632547E+04    4.9118893E+06
    3.49   500.000   -3.211E+02    4.8939779E+06   -1.8403639E+04   -7.3883420E+04    4.9071610E+06    1.8403631E+04    4.8939779E+06
    3.50   500.000   -3.214E+02    4.8728851E+06   -1.8646531E+04   -8.1150724E+04    4.9376496E+06    1.8646521E+04    4.8728851E+06
    3.51   500.000   -3.216E+02    4.8486733E+06   -1.8233718E+04   -8.5564417E+04    4.9700042E+06    1.8233707E+04    4.8486733E+06
    3.52   500.000   -3.219E+02    4.8216447E+06   -1.7102196E+04   -8.6782888E+04    5.0023110E+06    1.7102185E+04    4.8216447E+06
    3.53   500.000   -3.222E+02    4.7922076E+06   -1.5275400E+04   -8.4815932E+04    5.0312365E+06    1.5275388E+04    4.7922075E+06
    3.54   500.000   -3.225E+02    4.7606686E+06   -1.2865531E+04   -8.0015877E+04    5.0520733E+06    1.2865520E+04    4.7606685E+06
    3.55   500.000   -3.227E+02    4.7270362E+06   -1.0056237E+04   -7.3011783E+04    5.0590795E+06    1.0056227E+04    4.7270361E+06
    3.56   500.000   -3.230E+02    4.6909270E+06   -7.0724298E+03   -6.4604481E+04    5.0461684E+06    7.0724222E+03    4.6909270E+06
    3.57   500.000   -3.233E+02    4.6516269E+06   -4.1469706E+03   -5.5647769E+04    5.0079013E+06    4.1469655E+03    4.6516269E+06
    3.58   500.000   -3.235E+02    4.6082848E+06   -1.4920184E+03   -4.6941997E+04    4.9405942E+06    1.4920159E+03    4.6082847E+06
    3.59   500.000   -3.238E+02    4.5601570E+06    7.2150672E+02   -3.9159179E+04    4.8432403E+06   -7.2150642E+02    4.5601570E+06
    3.60   500.000   -3.241E+02    4.5068041E+06    2.3764432E+03   -3.2805262E+04    4.7179549E+06   -2.3764401E+03    4.5068041E+06
    3.61   500.000   -3.243E+02    4.4481764E+06    3.4152818E+03   -2.8211345E+04    4.5697832E+06   -3.4152759E+03    4.4481764E+06
    3.62   500.000   -3.246E+02    4.3845865E+06    3.8405797E+03   -2.5539455E+04    4.4059190E+06   -3.8405711E+03    4.3845865E+06
    3.63   500.000   -3.249E+02    4.3166144E+06    3.7105641E+03   -2.4793126E+04    4.2345579E+06   -3.7105530E+03    4.3166143E+06
    3.64   500.000   -3.252E+02    4.2450008E+06    3.1304925E+03   -2.5833510E+04    4.0636877E+06   -3.1304788E+03    4.2450008E+06
    3.65   500.000   -3.255E+02    4.1705644E+06    2.2405868E+03   -2.8408756E+04    3.9000855E+06   -2.2405709E+03    4.1705643E+06
    3.66   500.000   -3.258E+02    4.0941443E+06    1.2017146E+03   -3.2201740E+04    3.7486824E+06   -1.2016966E+03    4.0941443E+06
    3.67   500.000   -3.261E+02    4.0165506E+06    1.8018083E+02   -3.6890639E+04    3.6123354E+06   -1.8016132E+02    4.0165506E+06
    3.68   500.000   -3.264E+02    3.9385052E+06   -6.6717123E+02   -4.2206209E+04    3.4919528E+06    6.6719166E+02    3.9385052E+06
    3.69   500.000   -3.267E+02    3.8605750E+06   -1.2067031E+03   -4.7966226E+04    3.3868724E+06    1.2067238E+03    3.8605750E+06
    3.70   500.000   -3.270E+02    3.7831214E+06   -1.3397292E+03   -5.4073661E+04    3.2953816E+06    1.3397493E+03    3.7831214E+06
    3.71   500.000   -3.273E+02    3.7063031E+06   -1.0109137E+03   -6.0477654E+04    3.2152844E+06    1.0109327E+03    3.7063031E+06
    3.72   500.000   -3.276E+02    3.6301603E+06   -2.1158855E+02   -6.7109755E+04    3.1444289E+06    2.1160564E+02    3.6301602E+06
    3.73   500.000   -3.279E+02    3.5547840E+06    1.0229895E+03   -7.3817370E+04    3.0811339E+06   -1.0229747E+03    3.5547840E+06
    3.74   500.000   -3.282E+02    3.4805416E+06    2.6215753E+03   -8.0318773E+04    3.0244631E+06   -2.6215633E+03    3.4805416E+06
    3.75   500.000   -3.285E+02    3.4082981E+06    4.4876496E+03   -8.6198301E+04    2.9743270E+06   -4.4876407E+03    3.4082981E+06
    3.76   500.000   -3.288E+02    3.3395591E+06    6.5106004E+03   -9.0948118E+04    2.9314139E+06   -6.5105948E+03    3.3395591E+06
    3.77   500.000   -3.291E+02    3.2764651E+06    8.5765213E+03   -9.4048600E+04    2.8969789E+06   -8.5765194E+03    3.2764651E+06
    3.78   500.000   -3.294E+02    3.2216020E+06    1.0578825E+04   -9.5068683E+04    2.8725415E+06   -1.0578827E+04    3.2216019E+06
    3.79   500.000   -3.297E+02    3.1776486E+06    1.2428392E+04   -9.3763695E+04    2.8595560E+06   -1.2428398E+04    3.1776486E+06
    3.80   500.000   -3.300E+02    3.1469377E+06    1.4061735E+04   -9.0149942E+04    2.8591189E+06   -1.4061746E+04    3.1469377E+06
    3.81   500.000   -3.303E+02    3.1310364E+06    1.5445353E+04   -8.4539062E+04    2.8717596E+06   -1.5445369E+04    3.1310364E+06
    3.82   500.000   -3.306E+02    3.1304402E+06    1.6575618E+04   -7.7518996E+04    2.8973295E+06   -1.6575639E+04    3.1304401E+06
    3.83   500.000   -3.308E+02    3.1444367E+06    1.7475213E+04   -6.9874534E+04    2.9349739E+06   -1.7475240E+04    3.1444367E+06
    3.84   500.000   -3.311E+02    3.1711475E+06    1.8187847E+04   -6.2452229E+04    2.9831609E+06   -1.8187879E+04    3.1711474E+06
    3.85   500.000   -3.314E+02    3.2077294E+06    1.8772384E+04   -5.5992219E+04    3.0397619E+06   -1.8772421E+04    3.2077294E+06
    3.86   500.000   -3.317E+02    3.2507181E+06    1.9296473E+04   -5.0967973E+04    3.1022076E+06   -1.9296515E+04    3.2507180E+06
    3.87   500.000   -3.320E+02    3.2964894E+06    1.9829185E+04   -4.7484714E+04    3.1677646E+06   -1.9829231E+04    3.2964894E+06
    3.88   500.000   -3.323E+02    3.3418064E+06    2.0432277E+04   -4.5279485E+04    3.2339525E+06   -2.0432326E+04    3.3418063E+06
    3.89   500.000   -3.326E+02    3.3843715E+06    2.1150239E+04   -4.3837130E+04    3.2990509E+06   -2.1150291E+04    3.3843715E+06
    3.90   500.000   -3.329E+02    3.4232683E+06    2.1999925E+04   -4.2593626E+04    3.3625709E+06   -2.1999979E+04    3.4232683E+06
    3.91   500.000   -3.332E+02    3.4591709E+06    2.2961567E+04   -4.1158483E+04    3.4255276E+06   -2.2961622E+04    3.4591708E+06
    3.92   500.000   -3.335E+02    3.4942579E+06    2.3973758E+04   -3.9472690E+04    3.4904052E+06   -2.3973812E+04    3.4942579E+06
    3.93   500.000   -3.339E+02    3.5318654E+06    2.4934575E+04   -3.7840295E+04    3.5608225E+06   -2.4934628E+04    3.5318654E+06
    3.94   500.000   -3.342E+02    3.5759976E+06    2.5709121E+04   -3.6823092E+04    3.6410302E+06   -2.5709172E+04    3.5759975E+06
    3.95   500.000   -3.345E+02    3.6308525E+06    2.6141556E+04   -3.7043836E+04    3.7354278E+06   -2.6141604E+04    3.6308525E+06
    3.96   500.000   -3.348E+02    3.7004829E+06    2.6069161E+04   -3.8975910E+04    3.8482492E+06   -2.6069208E+04    3.7004829E+06
    3.97   500.000   -3.351E+02    3.7886422E+06    2.5337338E+04   -4.2793443E+04    3.9834665E+06   -2.5337382E+04    3.7886422E+06
    3.98   500.000   -3.354E+02    3.8987926E+06    2.3815901E+04   -4.8323017E+04    4.1448601E+06   -2.3815943E+04    3.8987926E+06
    3.99   500.000   -3.357E+02    4.0341990E+06    2.1416605E+04   -5.5096076E+04    4.3361285E+06   -2.1416645E+04    4.0341989E+06
    4.00   500.000   -3.361E+02    4.1980169E+06    1.8109535E+04   -6.2468162E+04    4.5608986E+06   -1.8109573E+04    4.1980169E+06
    4.01   500.000   -3.364E+02    4.3932946E+06    1.3933973E+04   -6.9756448E+04    4.8225231E+06   -1.3934010E+04    4.3932946E+06
    4.02   500.000   -3.367E+02    4.6228446E+06    8.9994689E+03   -7.6350702E+04    5.1236188E+06   -8.9995060E+03    4.6228446E+06
    4.03   500.000   -3.371E+02    4.8889850E+06    3.4750422E+03   -8.1770249E+04    5.4653825E+06   -3.4750793E+03    4.8889849E+06
    4.04   500.000   -3.374E+02    5.1931808E+06   -2.4322764E+03   -8.5662797E+04    5.8467974E+06    2.4322388E+03    5.1931808E+06
    4.05   500.000   -3.378E+02    5.5356306E+06   -8.5048893E+03   -8.7761912E+04    6.2638927E+06    8.5048508E+03    5.5356306E+06
    4.06   500.000   -3.381E+02    5.9148405E+06   -1.4540148E+04   -8.7831967E+04    6.7092299E+06    1.4540109E+04    5.9148404E+06
    4.07   500.000   -3.385E+02    6.3272364E+06   -2.0364391E+04   -8.5630757E+04    7.1717710E+06    2.0364350E+04    6.3272364E+06
    4.08   500.000   -3.389E+02    6.7668791E+06   -2.5828333E+04   -8.0912512E+04    7.6372455E+06    2.5828291E+04    6.7668790E+06
    4.09   500.000   -3.393E+02    7.2253646E+06   -3.0784272E+04   -7.3480002E+04    8.0890678E+06    3.0784228E+04    7.2253646E+06
    4.10   500.000   -3.396E+02    7.6919942E+06   -3.5055820E+04   -6.3275904E+04    8.5097602E+06    3.5055775E+04    7.6919941E+06
    4.11   500.000   -3.400E+02    8.1542494E+06   -3.8417878E+04   -5.0485164E+04    8.8827180E+06    3.8417834E+04    8.1542493E+06
    4.12   500.000   -3.404E+02    8.5985437E+06   -4.0602875E+04   -3.5609493E+04    9.1940346E+06    4.0602830E+04    8.5985436E+06
    4.13   500.000   -3.408E+02    9.0111483E+06   -4.1338587E+04   -1.9479089E+04    9.4340442E+06    4.1338544E+04    9.0111482E+06
    4.14   500.000   -3.412E+02    9.3791626E+06   -4.0408557E+04   -3.1848073E+03    9.5982644E+06    4.0408515E+04    9.3791625E+06
    4.15   500.000   -3.417E+02    9.6914143E+06   -3.7715676E+04    1.2061082E+04    9.6875465E+06    3.7715635E+04    9.6914142E+06
    4.16   500.000   -3.421E+02    9.9392153E+06   -3.3327809E+04    2.5105157E+04    9.7074128E+06    3.3327770E+04    9.9392152E+06
    4.17   500.000   -3.425E+02    1.0116930E+07   -2.7490809E+04    3.5030877E+04    9.6667463E+06    2.7490773E+04    1.0116930E+07
    4.18   500.000   -3.429E+02    1.0222322E+07   -2.0605058E+04    4.1290957E+04    9.5761461E+06    2.0605024E+04    1.0222322E+07
    4.19   500.000   -3.433E+02    1.0256632E+07   -1.3172043E+04    4.3763787E+04    9.4463300E+06    1.3172011E+04    1.0256632E+07
    4.20   500.000   -3.437E+02    1.0224371E+07   -5.7244841E+03    4.2726721E+04    9.2869360E+06    5.7244540E+03    1.0224371E+07
    4.21   500.000   -3.441E+02    1.0132808E+07    1.2438800E+03    3.8763974E+04    9.1059328E+06   -1.2439086E+03    1.0132808E+07
    4.22   500.000   -3.445E+02    9.9912442E+06    7.3343982E+03    3.2642675E+04    8.9096572E+06   -7.3344256E+03    9.9912441E+06
    4.23   500.000   -3.449E+02    9.8101605E+06    1.2276254E+04    2.5190879E+04    8.7033145E+06   -1.2276281E+04    9.8101604E+06
    4.24   500.000   -3.453E+02    9.6004109E+06    1.5933789E+04    1.7199104E+04    8.4916821E+06   -1.5933815E+04    9.6004108E+06
    4.25   500.000   -3.457E+02    9.3725773E+06    1.8293192E+04    9.3518684E+03    8.2797504E+06   -1.8293218E+04    9.3725773E+06
    4.26   500.000   -3.461E+02    9.1365705E+06    1.9437475E+04    2.1865015E+03    8.0731010E+06   -1.9437502E+04    9.1365705E+06
    4.27   500.000   -3.464E+02    8.9014643E+06    1.9518814E+04   -3.9253127E+03    7.8779280E+06   -1.9518841E+04    8.9014642E+06
    4.28   500.000   -3.468E+02    8.6754775E+06    1.8734165E+04   -8.7760193E+03    7.7007177E+06   -1.8734192E+04    8.6754775E+06
    4.29   500.000   -3.472E+02    8.4659821E+06    1.7305617E+04   -1.2302860E+04    7.5476964E+06   -1.7305644E+04    8.4659820E+06
    4.30   500.000   -3.475E+02    8.2794360E+06    1.5463421E+04   -1.4555243E+04    7.4242096E+06   -1.5463448E+04    8.2794360E+06
    4.31   500.000   -3.479E+02    8.1212108E+06    1.3428561E+04   -1.5657063E+04    7.3341929E+06   -1.3428588E+04    8.1212108E+06
    4.32   500.000   -3.482E+02    7.9953451E+06    1.1393318E+04   -1.5774249E+04    7.2798408E+06   -1.1393343E+04    7.9953451E+06
    4.33   500.000   -3.486E+02    7.9042952E+06    9.5017181E+03   -1.5096440E+04    7.2614968E+06   -9.5017427E+03    7.9042952E+06
    4.34   500.000   -3.490E+02    7.8487435E+06    7.8351937E+03   -1.3837342E+04    7.2777157E+06   -7.8352176E+03    7.8487435E+06
    4.35   500.000   -3.493E+02    7.8275039E+06    6.4098789E+03   -1.2252357E+04    7.3254219E+06   -6.4099024E+03    7.8275039E+06
    4.36   500.000   -3.497E+02    7.8375406E+06    5.1891802E+03   -1.0664967E+04    7.4001091E+06   -5.1892037E+03    7.8375406E+06
    4.37   500.000   -3.500E+02    7.8741111E+06    4.1093818E+03   -9.4858068E+03    7.4960752E+06   -4.1094059E+03    7.8741111E+06
    4.38   500.000   -3.504E+02    7.9310420E+06    3.1103012E+03   -9.2036894E+03    7.6067193E+06   -3.1103266E+03    7.9310420E+06
    4.39   500.000   -3.507E+02    8.0011373E+06    2.1607044E+03   -1.0331142E+04    7.7249268E+06   -2.1607316E+03    8.0011373E+06
    4.40   500.000   -3.511E+02    8.0767003E+06    1.2702579E+03   -1.3301459E+04    7.8435314E+06   -1.2702874E+03    8.0767003E+06
    4.41   500.000   -3.515E+02    8.1501341E+06    4.8447823E+02   -1.8336832E+04    7.9558028E+06   -4.8451051E+02    8.1501341E+06
    4.42   500.000   -3.519E+02    8.2145631E+06   -1.3580051E+02   -2.5328606E+04    8.0558889E+06    1.3576524E+02    8.2145631E+06
    4.43   500.000   -3.522E+02    8.2644154E+06   -5.4435639E+02   -3.3780213E+04    8.1391565E+06    5.4431802E+02    8.2644154E+06
    4.44   500.000   -3.526E+02    8.2958990E+06   -7.3881313E+02   -4.2853331E+04    8.2024062E+06    7.3877167E+02    8.2958990E+06
    4.45   500.000   -3.530E+02    8.3073127E+06   -7.7683837E+02   -5.1528204E+04    8.2439742E+06    7.7679395E+02    8.3073126E+06
    4.46   500.000   -3.534E+02    8.2991406E+06   -7.6916098E+02   -5.8847297E+04    8.2637495E+06    7.6911379E+02    8.2991405E+06
    4.47   500.000   -3.538E+02    8.2739091E+06   -8.4762448E+02   -6.4171904E+04    8.2631322E+06    8.4757479E+02    8.2739091E+06
    4.48   500.000   -3.542E+02    8.2358154E+06   -1.1186621E+03   -6.7361890E+04    8.2449383E+06    1.1186103E+03    8.2358154E+06
    4.49   500.000   -3.546E+02    8.1901799E+06   -1.6218773E+03   -6.8804095E+04    8.2132344E+06    1.6218237E+03    8.1901799E+06
    4.50   500.000   -3.550E+02    8.1428010E+06   -2.3130768E+03   -6.9266373E+04    8.1730686E+06    2.3130217E+03    8.1428009E+06
    4.51   500.000   -3.554E+02    8.0992981E+06   -3.0799211E+03   -6.9624050E+04    8.1300691E+06    3.0798650E+03    8.0992981E+06
    4.52   500.000   -3.558E+02    8.0645242E+06   -3.7825205E+03   -7.0561370E+04    8.0899107E+06    3.7824636E+03    8.0645242E+06
    4.53   500.000   -3.562E+02    8.0421226E+06   -4.3003174E+03   -7.2362283E+04    8.0577086E+06    4.3002601E+03    8.0421226E+06
    4.54   500.000   -3.566E+02    8.0343013E+06   -4.5664629E+03   -7.4863821E+04    8.0374563E+06    4.5664053E+03    8.0343013E+06
    4.55   500.000   -3.570E+02    8.0418806E+06   -4.5801202E+03   -7.7571550E+04    8.0316458E+06    4.5800626E+03    8.0418806E+06
    4.56   500.000   -3.574E+02    8.0646150E+06   -4.3985432E+03   -7.9868786E+04    8.0411670E+06    4.3984855E+03    8.0646151E+06
    4.57   500.000   -3.578E+02    8.1017065E+06   -4.1173269E+03   -8.1223513E+04    8.0654886E+06    4.1172694E+03    8.1017065E+06
    4.58   500.000   -3.582E+02    8.1523420E+06   -3.8470436E+03   -8.1318259E+04    8.1030303E+06    3.8469865E+03    8.1523420E+06
    4.59   500.000   -3.586E+02    8.2160603E+06   -3.6909709E+03   -8.0079320E+04    8.1515834E+06    3.6909145E+03    8.2160603E+06
    4.60   500.000   -3.591E+02    8.2927983E+06   -3.7263870E+03   -7.7630335E+04    8.2086494E+06    3.7263318E+03    8.2927983E+06
    4.61   500.000   -3.595E+02    8.3825735E+06   -3.9922539E+03   -7.4217793E+04    8.2716290E+06    3.9922006E+03    8.3825735E+06
    4.62   500.000   -3.599E+02    8.4848860E+06   -4.4866795E+03   -7.0149356E+04    8.3378578E+06    4.4866288E+03    8.4848861E+06
    4.63   500.000   -3.604E+02    8.5980202E+06   -5.1755151E+03   -6.5762198E+04    8.4045401E+06    5.1754676E+03    8.5980203E+06
    4.64   500.000   -3.608E+02    8.7184723E+06   -6.0089476E+03   -6.1414212E+04    8.4686516E+06    6.0089043E+03    8.7184723E+06
    4.65   500.000   -3.613E+02    8.8407030E+06   -6.9390151E+03   -5.7477771E+04    8.5268759E+06    6.9389768E+03    8.8407031E+06
    4.66   500.000   -3.617E+02    8.9573367E+06   -7.9306687E+03   -5.4318239E+04    8.5756130E+06    7.9306360E+03    8.9573367E+06
    4.67   500.000   -3.622E+02    9.0598118E+06   -8.9627515E+03   -5.2253461E+04    8.6110691E+06    8.9627253E+03    9.0598118E+06
    4.68   500.000   -3.627E+02    9.1393763E+06   -1.0020768E+04   -5.1505112E+04    8.6294268E+06    1.0020748E+04    9.1393763E+06
    4.69   500.000   -3.631E+02    9.1882188E+06   -1.1087336E+04   -5.2158093E+04    8.6270814E+06    1.1087324E+04    9.1882188E+06
    4.70   500.000   -3.636E+02    9.2004812E+06   -1.2136414E+04   -5.4139218E+04    8.6009265E+06    1.2136411E+04    9.2004812E+06
    4.71   500.000   -3.640E+02    9.1729099E+06   -1.3133552E+04   -5.7219195E+04    8.5486504E+06    1.3133557E+04    9.1729099E+06
    4.72   500.000   -3.645E+02    9.1050104E+06   -1.4039254E+04   -6.1039320E+04    8.4689951E+06    1.4039267E+04    9.1050104E+06
    4.73   500.000   -3.649E+02    8.9987235E+06   -1.4810488E+04   -6.5163494E+04    8.3619376E+06    1.4810509E+04    8.9987235E+06
    4.74   500.000   -3.654E+02    8.8578005E+06   -1.5398679E+04   -6.9149347E+04    8.2287776E+06    1.5398706E+04    8.8578005E+06
    4.75   500.000   -3.658E+02    8.6871328E+06   -1.5748201E+04   -7.2618960E+04    8.0721379E+06    1.5748234E+04    8.6871327E+06
    4.76   500.000   -3.663E+02    8.4922536E+06   -1.5801322E+04   -7.5301449E+04    7.8958858E+06    1.5801361E+04    8.4922536E+06
    4.77   500.000   -3.667E+02    8.2791003E+06   -1.5510790E+04   -7.7028739E+04    7.7049755E+06    1.5510833E+04    8.2791003E+06
    4.78   500.000   -3.671E+02    8.0539711E+06   -1.4854071E+04   -7.7690440E+04    7.5052005E+06    1.4854116E+04    8.0539710E+06
    4.79   500.000   -3.676E+02    7.8235133E+06   -1.3840633E+04   -7.7176934E+04    7.3028525E+06    1.3840680E+04    7.8235133E+06
    4.80   500.000   -3.680E+02    7.5945759E+06   -1.2508426E+04   -7.5343890E+04    7.1043026E+06    1.2508475E+04    7.5945758E+06
    4.81   500.000   -3.684E+02    7.3738383E+06   -1.0913758E+04   -7.2014151E+04    6.9155413E+06    1.0913808E+04    7.3738382E+06
    4.82   500.000   -3.688E+02    7.1672419E+06   -9.1232884E+03   -6.7009570E+04    6.7417201E+06    9.1233389E+03    7.1672419E+06
    4.83   500.000   -3.692E+02    6.9793473E+06   -7.2144239E+03   -6.0194467E+04    6.5867400E+06    7.2144746E+03    6.9793472E+06
    4.84   500.000   -3.696E+02    6.8127797E+06   -5.2830372E+03   -5.1518774E+04    6.4529281E+06    5.2830879E+03    6.8127797E+06
    4.85   500.000   -3.699E+02    6.6679130E+06   -3.4507353E+03   -4.1060886E+04    6.3408393E+06    3.4507857E+03    6.6679129E+06
    4.86   500.000   -3.703E+02    6.5428785E+06   -1.8626251E+03   -2.9072058E+04    6.2492150E+06    1.8626748E+03    6.5428784E+06
    4.87   500.000   -3.707E+02    6.4339091E+06   -6.7139636E+02   -1.6011819E+04    6.1751196E+06    6.7144490E+02    6.4339091E+06
    4.88   500.000   -3.711E+02    6.3359558E+06   -1.1137714E+01   -2.5487004E+03    6.1142532E+06    1.1184700E+01    6.3359558E+06
    4.89   500.000   -3.715E+02    6.2434650E+06    3.0160284E+01    1.0500661E+04    6.0614148E+06   -3.0115248E+01    6.2434650E+06
    4.90   500.000   -3.718E+02    6.1511857E+06   -5.7020218E+02    2.2299578E+04    6.0110657E+06    5.7024495E+02    6.1511856E+06
    4.91   500.000   -3.722E+02    6.0548794E+06   -1.7645117E+03    3.2156459E+04    5.9579305E+06    1.7645520E+03    6.0548794E+06
    4.92   500.000   -3.726E+02    5.9518322E+06   -3.4435497E+03    3.9668152E+04    5.8975672E+06    3.4435874E+03    5.9518322E+06
    4.93   500.000   -3.729E+02    5.8410988E+06   -5.4547087E+03    4.4781231E+04    5.8268344E+06    5.4547437E+03    5.8410987E+06
    4.94   500.000   -3.733E+02    5.7234607E+06   -7.6226822E+03    4.7742063E+04    5.7441858E+06    7.6227143E+03    5.7234607E+06
    4.95   500.000   -3.737E+02    5.6011261E+06   -9.7675519E+03    4.8954943E+04    5.6497379E+06    9.7675809E+03    5.6011260E+06
    4.96   500.000   -3.740E+02    5.4772371E+06   -1.1718519E+04    4.8807658E+04    5.5450836E+06    1.1718544E+04    5.4772371E+06
    4.97   500.000   -3.743E+02    5.3552731E+06   -1.3324693E+04    4.7535219E+04    5.4328662E+06    1.3324714E+04    5.3552731E+06
    4.98   500.000   -3.747E+02    5.2384326E+06   -1.4465309E+04    4.5171370E+04    5.3161774E+06    1.4465326E+04    5.2384326E+06
    4.99   500.000   -3.750E+02    5.1290741E+06   -1.5060126E+04    4.1595619E+04    5.1978920E+06    1.5060137E+04    5.1290740E+06
    5.00   500.000   -3.753E+02    5.0282900E+06   -1.5078097E+04    3.6641834E+04    5.0800878E+06    1.5078102E+04    5.0282900E+06
# T(K) = 600.00   Npoints =    1001   V(cm^3) =  1.231E-20
   -5.00   600.000    3.456E+02    1.7561369E+06   -4.1320367E+02   -2.9127591E+04    1.6780112E+06    4.1319713E+02    1.7561369E+06
   -4.99   600.000    3.448E+02    1.7542154E+06   -3.0911917E+02   -2.5231920E+04    1.6765780E+06    3.0911218E+02    1.7542154E+06
   -4.98   600.000    3.440E+02    1.7474333E+06   -2.1350319E+02   -2.1326147E+04    1.6713894E+06    2.1349570E+02    1.7474334E+06
   -4.97   600.000    3.433E+02    1.7362966E+06   -1.1134451E+02   -1.7526690E+04    1.6627126E+06    1.1133649E+02    1.7362966E+06
   -4.96   600.000    3.425E+02    1.7213954E+06    8.9926577E+00   -1.3923632E+04    1.6508513E+06   -9.0012630E+00    1.7213954E+06
   -4.95   600.000    3.418E+02    1.7033536E+06    1.5450627E+02   -1.0576446E+04    1.6361345E+06   -1.5451552E+02    1.7033536E+06
   -4.94   600.000    3.410E+02    1.6827750E+06    3.2698972E+02   -7.5157770E+03    1.6188978E+06   -3.2699967E+02    1.6827750E+06
   -4.93   600.000    3.403E+02    1.6601943E+06    5.2324464E+02   -4.7496729E+03    1.5994619E+06   -5.2325538E+02    1.6601943E+06
   -4.92   600.000    3.395E+02    1.6360412E+06    7.3596960E+02   -2.2718883E+03    1.5781093E+06   -7.3598118E+02    1.6360412E+06
   -4.91   600.000    3.388E+02    1.6106211E+06    9.5507588E+02   -6.9926666E+01    1.5550652E+06   -9.5508836E+02    1.6106211E+06
   -4.90   600.000    3.380E+02    1.5841141E+06    1.1691368E+03    1.8688131E+03    1.5304863E+06   -1.1691503E+03    1.5841141E+06
   -4.89   600.000    3.373E+02    1.5565893E+06    1.3667354E+03    3.5535353E+03    1.5044593E+06   -1.3667498E+03    1.5565894E+06
   -4.88   600.000    3.365E+02    1.5280310E+06    1.5375867E+03    4.9891318E+03    1.4770114E+06   -1.5376020E+03    1.5280311E+06
   -4.87   600.000    3.358E+02    1.4983691E+06    1.6734127E+03    6.1772323E+03    1.4481283E+06   -1.6734289E+03    1.4983691E+06
   -4.86   600.000    3.351E+02    1.4675098E+06    1.7685883E+03    7.1183346E+03    1.4177768E+06   -1.7686054E+03    1.4675099E+06
   -4.85   600.000    3.344E+02    1.4353610E+06    1.8205622E+03    7.8141278E+03    1.3859264E+06   -1.8205799E+03    1.4353611E+06
   -4.84   600.000    3.337E+02    1.4018494E+06    1.8300181E+03    8.2693498E+03    1.3525642E+06   -1.8300364E+03    1.4018494E+06
   -4.83   600.000    3.330E+02    1.3669290E+06    1.8007247E+03    8.4928869E+03    1.3177030E+06   -1.8007433E+03    1.3669290E+06
   -4.82   600.000    3.323E+02    1.3305820E+06    1.7390394E+03    8.4981885E+03    1.2813811E+06   -1.7390581E+03    1.3305820E+06
   -4.81   600.000    3.317E+02    1.2928140E+06    1.6530914E+03    8.3032769E+03    1.2436586E+06   -1.6531101E+03    1.2928140E+06
   -4.80   600.000    3.310E+02    1.2536480E+06    1.5517359E+03    7.9305971E+03    1.2046107E+06   -1.5517546E+03    1.2536481E+06
   -4.79   600.000    3.304E+02    1.2131179E+06    1.4434341E+03    7.4067075E+03    1.1643226E+06   -1.4434526E+03    1.2131180E+06
   -4.78   600.000    3.298E+02    1.1712661E+06    1.3352454E+03    6.7615628E+03    1.1228871E+06   -1.3352636E+03    1.1712661E+06
   -4.77   600.000    3.292E+02    1.1281446E+06    1.2321156E+03    6.0270833E+03    1.0804046E+06   -1.2321334E+03    1.1281446E+06
   -4.76   600.000    3.286E+02    1.0838218E+06    1.1365930E+03    5.2349356E+03    1.0369846E+06   -1.1366105E+03    1.0838218E+06
   -4.75   600.000    3.281E+02    1.0383912E+06    1.0490157E+03    4.4138501E+03    9.9274983E+05   -1.0490328E+03    1.0383912E+06
   -4.74   600.000    3.275E+02    9.9198288E+05    9.6809175E+02    3.5871306E+03    9.4784025E+05   -9.6810850E+02    9.9198289E+05
   -4.73   600.000    3.270E+02    9.4477290E+05    8.9169586E+02    2.7710578E+03    9.0241773E+05   -8.9171217E+02    9.4477291E+05
   -4.72   600.000    3.265E+02    8.9698829E+05    8.1765599E+02    1.9746279E+03    8.5667055E+05   -8.1767183E+02    8.9698830E+05
   -4.71   600.000    3.261E+02    8.4890527E+05    7.4434070E+02    1.2006334E+03    8.1081599E+05   -7.4435602E+02    8.4890528E+05
   -4.70   600.000    3.256E+02    8.0083973E+05    6.7095545E+02    4.4769264E+02    7.6509949E+05   -6.7097018E+02    8.0083974E+05
   -4.69   600.000    3.251E+02    7.5313133E+05    5.9757189E+02   -2.8737512E+02    7.1978914E+05   -5.9758597E+02    7.5313134E+05
   -4.68   600.000    3.247E+02    7.0612403E+05    5.2499278E+02   -1.0074145E+03    6.7516551E+05   -5.2500615E+02    7.0612404E+05
   -4.67   600.000    3.243E+02    6.6014707E+05    4.5456954E+02   -1.7134420E+03    6.3150861E+05   -4.5458214E+02    6.6014708E+05
   -4.66   600.000    3.239E+02    6.1549974E+05    3.8804866E+02   -2.4039462E+03    5.8908466E+05   -3.8806046E+02    6.1549975E+05
   -4.65   600.000    3.235E+02    5.7244241E+05    3.2745948E+02   -3.0749025E+03    5.4813597E+05   -3.2747046E+02    5.7244242E+05
   -4.64   600.000    3.231E+02    5.3119390E+05    2.7500581E+02   -3.7202790E+03    5.0887557E+05   -2.7501595E+02    5.3119391E+05
   -4.63   600.000    3.227E+02    4.9193397E+05    2.3290982E+02   -4.3327626E+03    4.7148701E+05   -2.3291913E+02    4.9193398E+05
   -4.62   600.000    3.222E+02    4.5480830E+05    2.0317994E+02   -4.9044729E+03    4.3612780E+05   -2.0318844E+02    4.5480831E+05
   -4.61   600.000    3.218E+02    4.1993363E+05    1.8732007E+02   -5.4275111E+03    4.0293415E+05   -1.8732779E+02    4.1993364E+05
   -4.60   600.000    3.214E+02    3.8740139E+05    1.8603971E+02   -5.8942933E+03    3.7202512E+05   -1.8604666E+02    3.8740141E+05
   -4.59   600.000    3.210E+02    3.5727946E+05    1.9904389E+02   -6.2977017E+03    3.4350473E+05   -1.9905013E+02    3.5727948E+05
   -4.58   600.000    3.205E+02    3.2961238E+05    2.2496894E+02   -6.6311452E+03    3.1746188E+05   -2.2497451E+02    3.2961239E+05
   -4.57   600.000    3.201E+02    3.0442102E+05    2.6149157E+02   -6.8886431E+03    2.9396824E+05   -2.6149650E+02    3.0442103E+05
   -4.56   600.000    3.196E+02    2.8170247E+05    3.0559318E+02   -7.0650304E+03    2.7307478E+05   -3.0559752E+02    2.8170248E+05
   -4.55   600.000    3.191E+02    2.6143048E+05    3.5392502E+02   -7.1563261E+03    2.5480746E+05   -3.5392883E+02    2.6143049E+05
   -4.54   600.000    3.185E+02    2.4355665E+05    4.0320317E+02   -7.1602394E+03    2.3916258E+05   -4.0320649E+02    2.4355666E+05
   -4.53   600.000    3.180E+02    2.2801220E+05    4.5056477E+02   -7.0767225E+03    2.2610219E+05   -4.5056764E+02    2.2801221E+05
   -4.52   600.000    3.174E+02    2.1471008E+05    4.9383221E+02   -6.9084362E+03    2.1555014E+05   -4.9383468E+02    2.1471009E+05
   -4.51   600.000    3.167E+02    2.0354751E+05    5.3165105E+02   -6.6609941E+03    2.0738958E+05   -5.3165317E+02    2.0354752E+05
   -4.50   600.000    3.160E+02    1.9440860E+05    5.6348814E+02   -6.3428885E+03    2.0146246E+05   -5.6348995E+02    1.9440861E+05
   -4.49   600.000    3.153E+02    1.8716697E+05    5.8949603E+02   -5.9650823E+03    1.9757176E+05   -5.8949756E+02    1.8716698E+05
   -4.48   600.000    3.145E+02    1.8168802E+05    6.1027076E+02   -5.5403455E+03    1.9548672E+05   -6.1027206E+02    1.8168803E+05
   -4.47   600.000    3.137E+02    1.7783033E+05    6.2654917E+02   -5.0824988E+03    1.9495076E+05   -6.2655026E+02    1.7783033E+05
   -4.46   600.000    3.128E+02    1.7544615E+05    6.3890549E+02   -4.6057552E+03    1.9569162E+05   -6.3890641E+02    1.7544616E+05
   -4.45   600.000    3.118E+02    1.7438093E+05    6.4751032E+02   -4.1243050E+03    1.9743245E+05   -6.4751110E+02    1.7438094E+05
   -4.44   600.000    3.108E+02    1.7447205E+05    6.5200368E+02   -3.6521707E+03    1.9990260E+05   -6.5200436E+02    1.7447206E+05
   -4.43   600.000    3.097E+02    1.7554752E+05    6.5151021E+02   -3.2032174E+03    2.0284671E+05   -6.5151081E+02    1.7554752E+05
   -4.42   600.000    3.086E+02    1.7742498E+05    6.4479181E+02   -2.7911022E+03    2.0603102E+05   -6.4479237E+02    1.7742498E+05
   -4.41   600.000    3.073E+02    1.7991172E+05    6.3050170E+02   -2.4289394E+03    2.0924640E+05   -6.3050224E+02    1.7991172E+05
   -4.40   600.000    3.060E+02    1.8280600E+05    6.0748005E+02   -2.1285631E+03    2.1230817E+05   -6.0748060E+02    1.8280600E+05
   -4.39   600.000    3.046E+02    1.8589986E+05    5.7502287E+02   -1.8994436E+03    2.1505383E+05   -5.7502344E+02    1.8589986E+05
   -4.38   600.000    3.030E+02    1.8898353E+05    5.3306383E+02   -1.7474935E+03    2.1733968E+05   -5.3306444E+02    1.8898353E+05
   -4.37   600.000    3.013E+02    1.9185122E+05    4.8223192E+02   -1.6740964E+03    2.1903820E+05   -4.8223258E+02    1.9185122E+05
   -4.36   600.000    2.995E+02    1.9430810E+05    4.2378003E+02   -1.6756750E+03    2.2003695E+05   -4.2378074E+02    1.9430810E+05
   -4.35   600.000    2.975E+02    1.9617798E+05    3.5941279E+02   -1.7439819E+03    2.2023998E+05   -3.5941353E+02    1.9617797E+05
   -4.34   600.000    2.953E+02    1.9731119E+05    2.9106530E+02   -1.8671025E+03    2.1957125E+05   -2.9106608E+02    1.9731118E+05
   -4.33   600.000    2.930E+02    1.9759218E+05    2.2069054E+02   -2.0309771E+03    2.1797975E+05   -2.2069132E+02    1.9759217E+05
   -4.32   600.000    2.906E+02    1.9694603E+05    1.5009791E+02   -2.2211331E+03    2.1544489E+05   -1.5009868E+02    1.9694602E+05
   -4.31   600.000    2.879E+02    1.9534334E+05    8.0857236E+01   -2.4242952E+03    2.1198127E+05   -8.0857978E+01    1.9534333E+05
   -4.30   600.000    2.851E+02    1.9280284E+05    1.4251705E+01   -2.6296028E+03    2.0764162E+05   -1.4252390E+01    1.9280283E+05
   -4.29   600.000    2.821E+02    1.8939129E+05   -4.8752377E+01   -2.8292745E+03    2.0251744E+05    4.8751773E+01    1.8939128E+05
   -4.28   600.000    2.790E+02    1.8522045E+05   -1.0754670E+02   -3.0186954E+03    1.9673688E+05    1.0754620E+02    1.8522044E+05
   -4.27   600.000    2.758E+02    1.8044112E+05   -1.6193917E+02   -3.1960195E+03    1.9045996E+05    1.6193880E+02    1.8044111E+05
   -4.26   600.000    2.724E+02    1.7523482E+05   -2.1221172E+02   -3.3614667E+03    1.8387149E+05    2.1221150E+02    1.7523481E+05
   -4.25   600.000    2.689E+02    1.6980364E+05   -2.5914838E+02   -3.5165219E+03    1.7717217E+05    2.5914833E+02    1.6980363E+05
   -4.24   600.000    2.653E+02    1.6435925E+05   -3.0401148E+02   -3.6632238E+03    1.7056879E+05    3.0401160E+02    1.6435924E+05
   -4.23   600.000    2.617E+02    1.5911199E+05   -3.4846365E+02   -3.8036618E+03    1.6426425E+05    3.4846395E+02    1.5911198E+05
   -4.22   600.000    2.579E+02    1.5426090E+05   -3.9445491E+02   -3.9397182E+03    1.5844820E+05    3.9445539E+02    1.5426089E+05
   -4.21   600.000    2.541E+02    1.4998534E+05   -4.4410502E+02   -4.0730156E+03    1.5328911E+05    4.4410567E+02    1.4998533E+05
   -4.20   600.000    2.503E+02    1.4643862E+05   -4.9960800E+02   -4.2049859E+03    1.4892812E+05    4.9960881E+02    1.4643862E+05
   -4.19   600.000    2.464E+02    1.4374390E+05   -5.6317198E+02   -4.3369660E+03    1.4547495E+05    5.6317293E+02    1.4374390E+05
   -4.18   600.000    2.424E+02    1.4199230E+05   -6.3699019E+02   -4.4702548E+03    1.4300590E+05    6.3699126E+02    1.4199230E+05
   -4.17   600.000    2.384E+02    1.4124326E+05   -7.2322515E+02   -4.6061076E+03    1.4156397E+05    7.2322632E+02    1.4124326E+05
   -4.16   600.000    2.343E+02    1.4152689E+05   -8.2398006E+02   -4.7456885E+03    1.4116077E+05    8.2398130E+02    1.4152689E+05
   -4.15   600.000    2.302E+02    1.4284813E+05   -9.4122918E+02   -4.8900314E+03    1.4178018E+05    9.4123048E+02    1.4284813E+05
   -4.14   600.000    2.261E+02    1.4519227E+05   -1.0766826E+03   -5.0400573E+03    1.4338328E+05    1.0766840E+03    1.4519227E+05
   -4.13   600.000    2.219E+02    1.4853122E+05   -1.2315713E+03   -5.1966772E+03    1.4591419E+05    1.2315727E+03    1.4853122E+05
   -4.12   600.000    2.178E+02    1.5282990E+05   -1.4063566E+03   -5.3609642E+03    1.4930627E+05    1.4063580E+03    1.5282990E+05
   -4.11   600.000    2.136E+02    1.5805178E+05   -1.6003945E+03   -5.5343476E+03    1.5348809E+05    1.6003959E+03    1.5805178E+05
   -4.10   600.000    2.094E+02    1.6416296E+05   -1.8116089E+03   -5.7187574E+03    1.5838854E+05    1.8116103E+03    1.6416296E+05
   -4.09   600.000    2.052E+02    1.7113418E+05   -2.0362417E+03   -5.9166529E+03    1.6394054E+05    2.0362431E+03    1.7113418E+05
   -4.08   600.000    2.010E+02    1.7894039E+05   -2.2687435E+03   -6.1308941E+03    1.7008320E+05    2.2687450E+03    1.7894040E+05
   -4.07   600.000    1.970E+02    1.8755804E+05   -2.5018435E+03   -6.3644455E+03    1.7676208E+05    2.5018449E+03    1.8755804E+05
   -4.06   600.000    1.929E+02    1.9696004E+05   -2.7268055E+03   -6.6199315E+03    1.8392784E+05    2.7268069E+03    1.9696004E+05
   -4.05   600.000    1.890E+02    2.0710934E+05   -2.9338535E+03   -6.8990706E+03    1.9153356E+05    2.9338549E+03    2.0710934E+05
   -4.04   600.000    1.852E+02    2.1795158E+05   -3.1127367E+03   -7.2020193E+03    1.9953119E+05    3.1127380E+03    2.1795158E+05
   -4.03   600.000    1.815E+02    2.2940801E+05   -3.2534062E+03   -7.5266556E+03    2.0786769E+05    3.2534075E+03    2.2940801E+05
   -4.02   600.000    1.779E+02    2.4136963E+05   -3.3467728E+03   -7.8678572E+03    2.1648126E+05    3.3467740E+03    2.4136963E+05
   -4.01   600.000    1.744E+02    2.5369359E+05   -3.3854980E+03   -8.2168732E+03    2.2529804E+05    3.3854991E+03    2.5369359E+05
   -4.00   600.000    1.711E+02    2.6620258E+05   -3.3647489E+03   -8.5609535E+03    2.3422944E+05    3.3647499E+03    2.6620258E+05
   -3.99   600.000    1.680E+02    2.7868788E+05   -3.2828184E+03   -8.8834449E+03    2.4317039E+05    3.2828192E+03    2.7868788E+05
   -3.98   600.000    1.650E+02    2.9091621E+05   -3.1415143E+03   -9.1645641E+03    2.5199909E+05    3.1415150E+03    2.9091621E+05
   -3.97   600.000    1.622E+02    3.0264049E+05   -2.9462435E+03   -9.3829691E+03    2.6057884E+05    2.9462440E+03    3.0264049E+05
   -3.96   600.000    1.595E+02    3.1361409E+05   -2.7057675E+03   -9.5180669E+03    2.6876298E+05    2.7057679E+03    3.1361409E+05
   -3.95   600.000    1.570E+02    3.2360755E+05   -2.4316610E+03   -9.5527528E+03    2.7640323E+05    2.4316613E+03    3.2360755E+05
   -3.94   600.000    1.546E+02    3.3242616E+05   -2.1375438E+03   -9.4760595E+03    2.8336125E+05    2.1375439E+03    3.3242616E+05
   -3.93   600.000    1.524E+02    3.3992609E+05   -1.8381777E+03   -9.2851121E+03    2.8952188E+05    1.8381777E+03    3.3992609E+05
   -3.92   600.000    1.503E+02    3.4602630E+05   -1.5485132E+03   -8.9859339E+03    2.9480578E+05    1.5485130E+03    3.4602630E+05
   -3.91   600.000    1.484E+02    3.5071427E+05   -1.2827553E+03   -8.5929832E+03    2.9917874E+05    1.2827550E+03    3.5071426E+05
   -3.90   600.000    1.465E+02    3.5404404E+05   -1.0534982E+03   -8.1277111E+03    3.0265567E+05    1.0534978E+03    3.5404403E+05
   -3.89   600.000    1.448E+02    3.5612722E+05   -8.7096910E+02   -7.6167020E+03    3.0529832E+05    8.7096856E+02    3.5612721E+05
   -3.88   600.000    1.431E+02    3.5711861E+05   -7.4241732E+02   -7.0899460E+03    3.0720747E+05    7.4241668E+02    3.5711861E+05
   -3.87   600.000    1.415E+02    3.5719955E+05   -6.7168904E+02   -6.5795193E+03    3.0851144E+05    6.7168832E+02    3.5719955E+05
   -3.86   600.000    1.400E+02    3.5656201E+05   -6.5901932E+02   -6.1185620E+03    3.0935362E+05    6.5901856E+02    3.5656200E+05
   -3.85   600.000    1.386E+02    3.5539604E+05   -7.0106037E+02   -5.7401930E+03    3.0988115E+05    7.0105958E+02    3.5539604E+05
   -3.84   600.000    1.372E+02    3.5388172E+05   -7.9114073E+02   -5.4760136E+03    3.1023653E+05    7.9113994E+02    3.5388172E+05
   -3.83   600.000    1.359E+02    3.5218528E+05   -9.1972754E+02   -5.3541184E+03    3.1055241E+05    9.1972678E+02    3.5218528E+05
   -3.82   600.000    1.346E+02    3.5045809E+05   -1.0750477E+03   -5.3968785E+03    3.1094916E+05    1.0750470E+03    3.5045808E+05
   -3.81   600.000    1.333E+02    3.4883644E+05   -1.2438192E+03   -5.6190066E+03    3.1153385E+05    1.2438186E+03    3.4883644E+05
   -3.80   600.000    1.321E+02    3.4744068E+05   -1.4120471E+03   -6.0264482E+03    3.1239925E+05    1.4120465E+03    3.4744068E+05
   -3.79   600.000    1.309E+02    3.4637271E+05   -1.5658476E+03   -6.6164737E+03    3.1362200E+05    1.5658471E+03    3.4637271E+05
   -3.78   600.000    1.298E+02    3.4571214E+05   -1.6922625E+03   -7.3790561E+03    3.1525931E+05    1.6922620E+03    3.4571213E+05
   -3.77   600.000    1.286E+02    3.4551216E+05   -1.7800125E+03   -8.2992899E+03    3.1734496E+05    1.7800121E+03    3.4551216E+05
   -3.76   600.000    1.275E+02    3.4579643E+05   -1.8201135E+03   -9.3603126E+03    3.1988522E+05    1.8201132E+03    3.4579643E+05
   -3.75   600.000    1.264E+02    3.4655824E+05   -1.8062599E+03   -1.0545989E+04    3.2285619E+05    1.8062596E+03    3.4655824E+05
   -3.74   600.000    1.253E+02    3.4776270E+05   -1.7348907E+03   -1.1842591E+04    3.2620366E+05    1.7348904E+03    3.4776270E+05
   -3.73   600.000    1.242E+02    3.4935220E+05   -1.6049085E+03   -1.3238901E+04    3.2984652E+05    1.6049082E+03    3.4935219E+05
   -3.72   600.000    1.231E+02    3.5125458E+05   -1.4171066E+03   -1.4724608E+04    3.3368438E+05    1.4171062E+03    3.5125458E+05
   -3.71   600.000    1.220E+02    3.5339325E+05   -1.1734517E+03   -1.6287383E+04    3.3760894E+05    1.1734513E+03    3.5339325E+05
   -3.70   600.000    1.209E+02    3.5569756E+05   -8.7641747E+02   -1.7909506E+04    3.4151807E+05    8.7641704E+02    3.5569756E+05
   -3.69   600.000    1.199E+02    3.5811182E+05   -5.2854993E+02   -1.9565109E+04    3.4532993E+05    5.2854944E+02    3.5811182E+05
   -3.68   600.000    1.188E+02    3.6060126E+05   -1.3237140E+02   -2.1219006E+04    3.4899442E+05    1.3237082E+02    3.6060126E+05
   -3.67   600.000    1.177E+02    3.6315379E+05    3.0938217E+02   -2.2827683E+04    3.5249902E+05   -3.0938285E+02    3.6315379E+05
   -3.66   600.000    1.167E+02    3.6577731E+05    7.9329084E+02   -2.4342496E+04    3.5586723E+05   -7.9329164E+02    3.6577731E+05
   -3.65   600.000    1.156E+02    3.6849319E+05    1.3146975E+03   -2.5714584E+04    3.5914974E+05   -1.3146984E+03    3.6849319E+05
   -3.64   600.000    1.145E+02    3.7132739E+05    1.8672119E+03   -2.6900625E+04    3.6240984E+05   -1.8672130E+03    3.7132739E+05
   -3.63   600.000    1.135E+02    3.7430101E+05    2.4423626E+03   -2.7868352E+04    3.6570627E+05   -2.4423638E+03    3.7430101E+05
   -3.62   600.000    1.124E+02    3.7742194E+05    3.0294284E+03   -2.8600811E+04    3.6907728E+05   -3.0294298E+03    3.7742195E+05
   -3.61   600.000    1.113E+02    3.8067903E+05    3.6154518E+03   -2.9098582E+04    3.7252942E+05   -3.6154533E+03    3.8067903E+05
   -3.60   600.000    1.102E+02    3.8403958E+05    4.1854348E+03   -2.9379556E+04    3.7603357E+05   -4.1854364E+03    3.8403958E+05
   -3.59   600.000    1.091E+02    3.8745081E+05    4.7227549E+03   -2.9476335E+04    3.7952940E+05   -4.7227566E+03    3.8745081E+05
   -3.58   600.000    1.080E+02    3.9084512E+05    5.2098616E+03   -2.9431722E+04    3.8293719E+05   -5.2098634E+03    3.9084512E+05
   -3.57   600.000    1.069E+02    3.9414873E+05    5.6293091E+03   -2.9293087E+04    3.8617459E+05   -5.6293110E+03    3.9414874E+05
   -3.56   600.000    1.058E+02    3.9729258E+05    5.9651145E+03   -2.9106609E+04    3.8917440E+05   -5.9651164E+03    3.9729258E+05
   -3.55   600.000    1.047E+02    4.0022361E+05    6.2043148E+03   -2.8912370E+04    3.9189932E+05   -6.2043167E+03    4.0022362E+05
   -3.54   600.000    1.036E+02    4.0291456E+05    6.3384756E+03   -2.8741108E+04    3.9435039E+05   -6.3384776E+03    4.0291456E+05
   -3.53   600.000    1.024E+02    4.0536974E+05    6.3648297E+03   -2.8613073E+04    3.9656746E+05   -6.3648317E+03    4.0536974E+05
   -3.52   600.000    1.013E+02    4.0762558E+05    6.2867473E+03   -2.8538942E+04    3.9862217E+05   -6.2867492E+03    4.0762558E+05
   -3.51   600.000    1.002E+02    4.0974514E+05    6.1133702E+03   -2.8522324E+04    4.0060533E+05   -6.1133721E+03    4.0974515E+05
   -3.50   600.000    9.904E+01    4.1180762E+05    5.8584451E+03   -2.8563049E+04    4.0261189E+05   -5.8584471E+03    4.1180763E+05
   -3.49   600.000    9.790E+01    4.1389488E+05    5.5385906E+03   -2.8660356E+04    4.0472641E+05   -5.5385926E+03    4.1389488E+05
   -3.48   600.000    9.676E+01    4.1607772E+05    5.1713637E+03   -2.8815234E+04    4.0701145E+05   -5.1713657E+03    4.1607772E+05
   -3.47   600.000    9.560E+01    4.1840469E+05    4.7735042E+03   -2.9031475E+04    4.0950034E+05   -4.7735063E+03    4.1840469E+05
   -3.46   600.000    9.445E+01    4.2089524E+05    4.3596408E+03   -2.9315319E+04    4.1219454E+05   -4.3596429E+03    4.2089524E+05
   -3.45   600.000    9.328E+01    4.2353797E+05    3.9415812E+03   -2.9673816E+04    4.1506542E+05   -3.9415834E+03    4.2353797E+05
   -3.44   600.000    9.210E+01    4.2629373E+05    3.5281475E+03   -3.0112298E+04    4.1805940E+05   -3.5281498E+03    4.2629373E+05
   -3.43   600.000    9.092E+01    4.2910225E+05    3.1253932E+03   -3.0631418E+04    4.2110567E+05   -3.1253956E+03    4.2910225E+05
   -3.42   600.000    8.972E+01    4.3189095E+05    2.7369928E+03   -3.1224408E+04    4.2412513E+05   -2.7369953E+03    4.3189095E+05
   -3.41   600.000    8.850E+01    4.3458439E+05    2.3646215E+03   -3.1875170E+04    4.2703989E+05   -2.3646242E+03    4.3458439E+05
   -3.40   600.000    8.726E+01    4.3711328E+05    2.0082329E+03   -3.2557761E+04    4.2978232E+05   -2.0082358E+03    4.3711327E+05
   -3.39   600.000    8.601E+01    4.3942244E+05    1.6662587E+03   -3.3237572E+04    4.3230321E+05   -1.6662618E+03    4.3942244E+05
   -3.38   600.000    8.473E+01    4.4147729E+05    1.3358490E+03   -3.3874092E+04    4.3457854E+05   -1.3358523E+03    4.4147728E+05
   -3.37   600.000    8.342E+01    4.4326860E+05    1.0133036E+03   -3.4424796E+04    4.3661433E+05   -1.0133070E+03    4.4326860E+05
   -3.36   600.000    8.208E+01    4.4481546E+05    6.9478533E+02   -3.4849375E+04    4.3844890E+05   -6.9478888E+02    4.4481545E+05
   -3.35   600.000    8.071E+01    4.4616582E+05    3.7729082E+02   -3.5113419E+04    4.4015195E+05   -3.7729450E+02    4.4616582E+05
   -3.34   600.000    7.931E+01    4.4739443E+05    5.9719169E+01   -3.5190811E+04    4.4181968E+05   -5.9722957E+01    4.4739442E+05
   -3.33   600.000    7.786E+01    4.4859738E+05   -2.5620717E+02   -3.5064396E+04    4.4356582E+05    2.5620329E+02    4.4859738E+05
   -3.32   600.000    7.638E+01    4.4988346E+05   -5.6541954E+02   -3.4724967E+04    4.4550891E+05    5.6541561E+02    4.4988346E+05
   -3.31   600.000    7.486E+01    4.5136265E+05   -8.5955625E+02   -3.4169067E+04    4.4775695E+05    8.5955230E+02    4.5136264E+05
   -3.30   600.000    7.329E+01    4.5313311E+05   -1.1276474E+03   -3.3396453E+04    4.5039152E+05    1.1276435E+03    4.5313310E+05
   -3.29   600.000    7.168E+01    4.5526858E+05   -1.3573555E+03   -3.2408175E+04    4.5345363E+05    1.3573516E+03    4.5526857E+05
   -3.28   600.000    7.003E+01    4.5780812E+05   -1.5365798E+03   -3.1206076E+04    4.5693408E+05    1.5365761E+03    4.5780812E+05
   -3.27   600.000    6.833E+01    4.6075021E+05   -1.6551464E+03   -2.9794022E+04    4.6077042E+05    1.6551428E+03    4.6075020E+05
   -3.26   600.000    6.659E+01    4.6405211E+05   -1.7062596E+03   -2.8180639E+04    4.6485167E+05    1.7062563E+03    4.6405211E+05
   -3.25   600.000    6.480E+01    4.6763486E+05   -1.6874030E+03   -2.6382741E+04    4.6903039E+05    1.6874000E+03    4.6763486E+05
   -3.24   600.000    6.298E+01    4.7139250E+05   -1.6004685E+03   -2.4428378E+04    4.7313992E+05    1.6004658E+03    4.7139250E+05
   -3.23   600.000    6.112E+01    4.7520413E+05   -1.4510636E+03   -2.2358491E+04    4.7701343E+05    1.4510614E+03    4.7520413E+05
   -3.22   600.000    5.923E+01    4.7894625E+05   -1.2471620E+03   -2.0226574E+04    4.8050131E+05    1.2471603E+03    4.7894625E+05
   -3.21   600.000    5.732E+01    4.8250361E+05   -9.9744766E+02   -1.8096346E+04    4.8348364E+05    9.9744642E+02    4.8250361E+05
   -3.20   600.000    5.538E+01    4.8577698E+05   -7.0979370E+02   -1.6037905E+04    4.8587648E+05    7.0979299E+02    4.8577698E+05
   -3.19   600.000    5.342E+01    4.8868709E+05   -3.9025940E+02   -1.4123149E+04    4.8763184E+05    3.9025920E+02    4.8868710E+05
   -3.18   600.000    5.146E+01    4.9117489E+05   -4.2821260E+01   -1.2421205E+04    4.8873252E+05    4.2821546E+01    4.9117489E+05
   -3.17   600.000    4.949E+01    4.9319839E+05    3.3016867E+02   -1.0994401E+04    4.8918378E+05   -3.3016795E+02    4.9319839E+05
   -3.16   600.000    4.753E+01    4.9472747E+05    7.2700071E+02   -9.8950112E+03    4.8900391E+05   -7.2699963E+02    4.9472747E+05
   -3.15   600.000    4.560E+01    4.9573785E+05    1.1454252E+03   -9.1627480E+03    4.8821570E+05   -1.1454239E+03    4.9573785E+05
   -3.14   600.000    4.368E+01    4.9620581E+05    1.5816209E+03   -8.8228740E+03    4.8684036E+05   -1.5816194E+03    4.9620581E+05
   -3.13   600.000    4.180E+01    4.9610467E+05    2.0296097E+03   -8.8848160E+03    4.8489490E+05   -2.0296081E+03    4.9610467E+05
   -3.12   600.000    3.997E+01    4.9540397E+05    2.4812974E+03   -9.3412597E+03    4.8239314E+05   -2.4812958E+03    4.9540397E+05
   -3.11   600.000    3.818E+01    4.9407081E+05    2.9271633E+03   -1.0167825E+04    4.7934944E+05   -2.9271618E+03    4.9407081E+05
   -3.10   600.000    3.645E+01    4.9207264E+05    3.3574529E+03   -1.1323495E+04    4.7578351E+05   -3.3574515E+03    4.9207264E+05
   -3.09   600.000    3.478E+01    4.8938022E+05    3.7635817E+03   -1.2751988E+04    4.7172418E+05   -3.7635806E+03    4.8938021E+05
   -3.08   600.000    3.318E+01    4.8596939E+05    4.1393855E+03   -1.4384233E+04    4.6721046E+05   -4.1393847E+03    4.8596939E+05
   -3.07   600.000    3.164E+01    4.8182130E+05    4.4818806E+03   -1.6142008E+04    4.6228908E+05   -4.4818802E+03    4.8182130E+05
   -3.06   600.000    3.018E+01    4.7692115E+05    4.7913394E+03   -1.7942670E+04    4.5700904E+05   -4.7913394E+03    4.7692115E+05
   -3.05   600.000    2.878E+01    4.7125643E+05    5.0706822E+03   -1.9704698E+04    4.5141476E+05   -5.0706826E+03    4.7125643E+05
   -3.04   600.000    2.746E+01    4.6481593E+05    5.3243715E+03   -2.1353549E+04    4.4553959E+05   -5.3243723E+03    4.6481593E+05
   -3.03   600.000    2.621E+01    4.5759047E+05    5.5570934E+03   -2.2827039E+04    4.3940152E+05   -5.5570946E+03    4.5759047E+05
   -3.02   600.000    2.502E+01    4.4957571E+05    5.7725106E+03   -2.4079384E+04    4.3300186E+05   -5.7725122E+03    4.4957571E+05
   -3.01   600.000    2.390E+01    4.4077692E+05    5.9723069E+03   -2.5083137E+04    4.2632697E+05   -5.9723089E+03    4.4077691E+05
   -3.00   600.000    2.284E+01    4.3121477E+05    6.1556574E+03   -2.5828702E+04    4.1935282E+05   -6.1556597E+03    4.3121477E+05
   -2.99   600.000    2.184E+01    4.2093147E+05    6.3191931E+03   -2.6321707E+04    4.1205171E+05   -6.3191957E+03    4.2093146E+05
   -2.98   600.000    2.090E+01    4.0999611E+05    6.4574765E+03   -2.6579068E+04    4.0440049E+05   -6.4574793E+03    4.0999611E+05
   -2.97   600.000    2.001E+01    3.9850872E+05    6.5639429E+03   -2.6624827E+04    3.9638970E+05   -6.5639459E+03    3.9850872E+05
   -2.96   600.000    1.918E+01    3.8660199E+05    6.6321849E+03   -2.6486687E+04    3.8803227E+05   -6.6321880E+03    3.8660198E+05
   -2.95   600.000    1.839E+01    3.7444011E+05    6.6573652E+03   -2.6193692E+04    3.7937052E+05   -6.6573683E+03    3.7444011E+05
   -2.94   600.000    1.764E+01    3.6221414E+05    6.6374865E+03   -2.5775038E+04    3.7047959E+05   -6.6374897E+03    3.6221414E+05
   -2.93   600.000    1.694E+01    3.5013366E+05    6.5742466E+03   -2.5259612E+04    3.6146639E+05   -6.5742497E+03    3.5013365E+05
   -2.92   600.000    1.628E+01    3.3841520E+05    6.4732847E+03   -2.4675831E+04    3.5246365E+05   -6.4732877E+03    3.3841519E+05
   -2.91   600.000    1.565E+01    3.2726862E+05    6.3437572E+03   -2.4051472E+04    3.4362010E+05   -6.3437601E+03    3.2726861E+05
   -2.90   600.000    1.506E+01    3.1688289E+05    6.1973237E+03   -2.3413441E+04    3.3508829E+05   -6.1973265E+03    3.1688288E+05
   -2.89   600.000    1.451E+01    3.0741317E+05    6.0467364E+03   -2.2787598E+04    3.2701223E+05   -6.0467390E+03    3.0741317E+05
   -2.88   600.000    1.398E+01    2.9897069E+05    5.9042807E+03   -2.2198785E+04    3.1951676E+05   -5.9042831E+03    2.9897069E+05
   -2.87   600.000    1.348E+01    2.9161663E+05    5.7803083E+03   -2.1671116E+04    3.1269984E+05   -5.7803105E+03    2.9161663E+05
   -2.86   600.000    1.301E+01    2.8536083E+05    5.6820578E+03   -2.1228400E+04    3.0662880E+05   -5.6820597E+03    2.8536082E+05
   -2.85   600.000    1.256E+01    2.8016534E+05    5.6128888E+03   -2.0894439E+04    3.0134054E+05   -5.6128906E+03    2.8016533E+05
   -2.84   600.000    1.213E+01    2.7595273E+05    5.5719923E+03   -2.0692876E+04    2.9684507E+05   -5.5719938E+03    2.7595273E+05
   -2.83   600.000    1.173E+01    2.7261798E+05    5.5545774E+03   -2.0646328E+04    2.9313142E+05   -5.5545788E+03    2.7261798E+05
   -2.82   600.000    1.135E+01    2.7004245E+05    5.5524842E+03   -2.0774648E+04    2.9017422E+05   -5.5524855E+03    2.7004245E+05
   -2.81   600.000    1.098E+01    2.6810784E+05    5.5551203E+03   -2.1092331E+04    2.8793925E+05   -5.5551216E+03    2.6810784E+05
   -2.80   600.000    1.064E+01    2.6670786E+05    5.5505798E+03   -2.1605259E+04    2.8638662E+05   -5.5505811E+03    2.6670786E+05
   -2.79   600.000    1.031E+01    2.6575552E+05    5.5267834E+03   -2.2307164E+04    2.8547095E+05   -5.5267847E+03    2.6575552E+05
   -2.78   600.000    9.989E+00    2.6518503E+05    5.4724834E+03   -2.3176381E+04    2.8513858E+05   -5.4724848E+03    2.6518503E+05
   -2.77   600.000    9.685E+00    2.6494793E+05    5.3780137E+03   -2.4173569E+04    2.8532281E+05   -5.3780152E+03    2.6494793E+05
   -2.76   600.000    9.393E+00    2.6500460E+05    5.2357221E+03   -2.5241061E+04    2.8593829E+05   -5.2357239E+03    2.6500460E+05
   -2.75   600.000    9.111E+00    2.6531268E+05    5.0400965E+03   -2.6304404E+04    2.8687579E+05   -5.0400984E+03    2.6531268E+05
   -2.74   600.000    8.838E+00    2.6581461E+05    4.7876669E+03   -2.7276297E+04    2.8799857E+05   -4.7876691E+03    2.6581461E+05
   -2.73   600.000    8.574E+00    2.6642668E+05    4.4768271E+03   -2.8062803E+04    2.8914118E+05   -4.4768294E+03    2.6642668E+05
   -2.72   600.000    8.317E+00    2.6703149E+05    4.1077289E+03   -2.8571243E+04    2.9011150E+05   -4.1077314E+03    2.6703149E+05
   -2.71   600.000    8.067E+00    2.6747545E+05    3.6823620E+03   -2.8718889E+04    2.9069642E+05   -3.6823646E+03    2.6747545E+05
   -2.70   600.000    7.823E+00    2.6757220E+05    3.2048217E+03   -2.8441345E+04    2.9067119E+05   -3.2048243E+03    2.6757220E+05
   -2.69   600.000    7.584E+00    2.6711169E+05    2.6816548E+03   -2.7699513E+04    2.8981180E+05   -2.6816574E+03    2.6711169E+05
   -2.68   600.000    7.351E+00    2.6587401E+05    2.1220914E+03   -2.6484221E+04    2.8790903E+05   -2.1220940E+03    2.6587401E+05
   -2.67   600.000    7.123E+00    2.6364596E+05    1.5379842E+03   -2.4817791E+04    2.8478246E+05   -1.5379867E+03    2.6364596E+05
   -2.66   600.000    6.901E+00    2.6023820E+05    9.4337417E+02   -2.2752246E+04    2.8029257E+05   -9.4337648E+02    2.6023821E+05
   -2.65   600.000    6.684E+00    2.5550070E+05    3.5372806E+02   -2.0364252E+04    2.7434973E+05   -3.5373015E+02    2.5550070E+05
   -2.64   600.000    6.472E+00    2.4933478E+05   -2.1500604E+02   -1.7747475E+04    2.6691956E+05    2.1500421E+02    2.4933479E+05
   -2.63   600.000    6.267E+00    2.4170093E+05   -7.4736548E+02   -1.5003529E+04    2.5802483E+05    7.4736393E+02    2.4170093E+05
   -2.62   600.000    6.068E+00    2.3262203E+05   -1.2292487E+03   -1.2233017E+04    2.4774473E+05    1.2292474E+03    2.3262203E+05
   -2.61   600.000    5.876E+00    2.2218260E+05   -1.6486598E+03   -9.5280769E+03    2.3621214E+05    1.6486588E+03    2.2218261E+05
   -2.60   600.000    5.691E+00    2.1052455E+05   -1.9963280E+03   -6.9672824E+03    2.2360943E+05    1.9963274E+03    2.1052455E+05
   -2.59   600.000    5.514E+00    1.9783989E+05   -2.2662037E+03   -4.6130387E+03    2.1016259E+05    2.2662033E+03    1.9783989E+05
   -2.58   600.000    5.346E+00    1.8436105E+05   -2.4557987E+03   -2.5109473E+03    1.9613352E+05    2.4557987E+03    1.8436106E+05
   -2.57   600.000    5.186E+00    1.7034898E+05   -2.5663065E+03   -6.9036207E+02    1.8181005E+05    2.5663068E+03    1.7034899E+05
   -2.56   600.000    5.034E+00    1.5607959E+05   -2.6024376E+03    8.3450564E+02    1.6749389E+05    2.6024380E+03    1.5607959E+05
   -2.55   600.000    4.892E+00    1.4182948E+05   -2.5719473E+03    2.0632361E+03    1.5348712E+05    2.5719479E+03    1.4182949E+05
   -2.54   600.000    4.757E+00    1.2786200E+05   -2.4848960E+03    3.0076025E+03    1.4007840E+05    2.4848968E+03    1.2786200E+05
   -2.53   600.000    4.631E+00    1.1441490E+05   -2.3527374E+03    3.6896105E+03    1.2753011E+05    2.3527383E+03    1.1441490E+05
   -2.52   600.000    4.512E+00    1.0169070E+05   -2.1873631E+03    4.1391249E+03    1.1606771E+05    2.1873641E+03    1.0169070E+05
   -2.51   600.000    4.400E+00    8.9850516E+04   -2.0002296E+03    4.3911760E+03    1.0587192E+05    2.0002307E+03    8.9850517E+04
   -2.50   600.000    4.293E+00    7.9011560E+04   -1.8016639E+03    4.4831544E+03    9.7073858E+04    1.8016651E+03    7.9011561E+04
   -2.49   600.000    4.191E+00    6.9248032E+04   -1.6004001E+03    4.4521500E+03    8.9752968E+04    1.6004013E+03    6.9248032E+04
   -2.48   600.000    4.092E+00    6.0594822E+04   -1.4033554E+03    4.3326699E+03    8.3936885E+04    1.4033566E+03    6.0594822E+04
   -2.47   600.000    3.994E+00    5.3053133E+04   -1.2156174E+03    4.1549072E+03    7.9602742E+04    1.2156186E+03    5.3053133E+04
   -2.46   600.000    3.896E+00    4.6597151E+04   -1.0405902E+03    3.9436515E+03    7.6679314E+04    1.0405915E+03    4.6597151E+04
   -2.45   600.000    3.797E+00    4.1180923E+04   -8.8024306E+02    3.7178555E+03    7.5049845E+04    8.8024441E+02    4.1180923E+04
   -2.44   600.000    3.696E+00    3.6744801E+04   -7.3540362E+02    3.4907956E+03    7.4555797E+04    7.3540504E+02    3.6744801E+04
   -2.43   600.000    3.591E+00    3.3220966E+04   -6.0605357E+02    3.2707141E+03    7.5002070E+04    6.0605504E+02    3.3220966E+04
   -2.42   600.000    3.480E+00    3.0537738E+04   -4.9159466E+02    3.0617939E+03    7.6164365E+04    4.9159619E+02    3.0537738E+04
   -2.41   600.000    3.364E+00    2.8622561E+04   -3.9106868E+02    2.8653020E+03    7.7799191E+04    3.9107028E+02    2.8622562E+04
   -2.40   600.000    3.242E+00    2.7403695E+04   -3.0332541E+02    2.6807397E+03    7.9656555E+04    3.0332706E+02    2.7403696E+04
   -2.39   600.000    3.113E+00    2.6810758E+04   -2.2714154E+02    2.5068614E+03    8.1494693E+04    2.2714323E+02    2.6810759E+04
   -2.38   600.000    2.977E+00    2.6774434E+04   -1.6129894E+02    2.3424518E+03    8.3095525E+04    1.6130066E+02    2.6774435E+04
   -2.37   600.000    2.835E+00    2.7225730E+04   -1.0463335E+02    2.1868022E+03    8.4279017E+04    1.0463508E+02    2.7225731E+04
   -2.36   600.000    2.686E+00    2.8095278E+04   -5.6064246E+01    2.0398681E+03    8.4914574E+04    5.6065966E+01    2.8095279E+04
   -2.35   600.000    2.531E+00    2.9313205E+04   -1.4614756E+01    1.9021488E+03    8.4927925E+04    1.4616448E+01    2.9313206E+04
   -2.34   600.000    2.371E+00    3.0810016E+04    2.0573482E+01    1.7743643E+03    8.4302724E+04   -2.0571839E+01    3.0810017E+04
   -2.33   600.000    2.207E+00    3.2518812E+04    5.0229366E+01    1.6570402E+03    8.3077013E+04   -5.0227792E+01    3.2518814E+04
   -2.32   600.000    2.041E+00    3.4378876E+04    7.4947203E+01    1.5501179E+03    8.1335538E+04   -7.4945717E+01    3.4378878E+04
   -2.31   600.000    1.873E+00    3.6340367E+04    9.5190573E+01    1.4526931E+03    7.9199456E+04   -9.5189196E+01    3.6340370E+04
   -2.30   600.000    1.706E+00    3.8369592E+04    1.1130753E+02    1.3629498E+03    7.6815163E+04   -1.1130628E+02    3.8369595E+04
   -2.29   600.000    1.540E+00    4.0454055E+04    1.2355720E+02    1.2782992E+03    7.4343771E+04   -1.2355610E+02    4.0454058E+04
   -2.28   600.000    1.378E+00    4.2606476E+04    1.3214484E+02    1.1956856E+03    7.1952299E+04   -1.3214391E+02    4.2606480E+04
   -2.27   600.000    1.220E+00    4.4867021E+04    1.3725988E+02    1.1119758E+03    6.9807074E+04   -1.3725914E+02    4.4867025E+04
   -2.26   600.000    1.067E+00    4.7303220E+04    1.3911004E+02    1.0243425E+03    6.8069237E+04   -1.3910950E+02    4.7303225E+04
   -2.25   600.000    9.208E-01    5.0007452E+04    1.3794521E+02    9.3056554E+02    6.6891908E+04   -1.3794491E+02    5.0007457E+04
   -2.24   600.000    7.818E-01    5.3092175E+04    1.3406688E+02    8.2921107E+02    6.6418359E+04   -1.3406680E+02    5.3092181E+04
   -2.23   600.000    6.502E-01    5.6683504E+04    1.2782222E+02    7.1968935E+02    6.6780637E+04   -1.2782238E+02    5.6683511E+04
   -2.22   600.000    5.261E-01    6.0913909E+04    1.1958582E+02    6.0222262E+02    6.8098259E+04   -1.1958622E+02    6.0913917E+04
   -2.21   600.000    4.092E-01    6.5914903E+04    1.0973415E+02    4.7776518E+02    7.0476894E+04   -1.0973478E+02    6.5914911E+04
   -2.20   600.000    2.992E-01    7.1810515E+04    9.8619230E+01    3.4790983E+02    7.4007079E+04   -9.8620083E+01    7.1810525E+04
   -2.19   600.000    1.953E-01    7.8712090E+04    8.6547127E+01    2.1479097E+02    7.8763160E+04   -8.6548181E+01    7.8712101E+04
   -2.18   600.000    9.681E-02    8.6714695E+04    7.3764909E+01    8.0969014E+01    8.4802601E+04   -7.3766141E+01    8.6714707E+04
   -2.17   600.000    2.845E-03    9.5895157E+04    6.0457376E+01   -5.0733548E+01    9.2165744E+04   -6.0458762E+01    9.5895170E+04
   -2.16   600.000   -8.752E-02    1.0631154E+05    4.6752661E+01   -1.7746470E+02    1.0087602E+05   -4.6754176E+01    1.0631156E+05
   -2.15   600.000   -1.752E-01    1.1800383E+05    3.2734380E+01   -2.9663121E+02    1.1094056E+05   -3.2736006E+01    1.1800384E+05
   -2.14   600.000   -2.611E-01    1.3099544E+05    1.8457507E+01   -4.0618703E+02    1.2235113E+05   -1.8459234E+01    1.3099546E+05
   -2.13   600.000   -3.460E-01    1.4529545E+05    3.9653403E+00   -5.0483873E+02    1.3508540E+05   -3.9671669E+00    1.4529547E+05
   -2.12   600.000   -4.307E-01    1.6090102E+05   -1.0694342E+01   -5.9209499E+02    1.4910868E+05    1.0692401E+01    1.6090104E+05
   -2.11   600.000   -5.158E-01    1.7779996E+05   -2.5454797E+01   -6.6813977E+02    1.6437626E+05    2.5452713E+01    1.7779999E+05
   -2.10   600.000   -6.020E-01    1.9597292E+05   -4.0217286E+01   -7.3358370E+02    1.8083645E+05    4.0215012E+01    1.9597294E+05
   -2.09   600.000   -6.898E-01    2.1539493E+05   -5.4838238E+01   -7.8920982E+02    1.9843448E+05    5.4835711E+01    2.1539496E+05
   -2.08   600.000   -7.795E-01    2.3603617E+05   -6.9114918E+01   -8.3584335E+02    2.1711679E+05    6.9112061E+01    2.3603620E+05
   -2.07   600.000   -8.718E-01    2.5786163E+05   -8.2768546E+01   -8.7442883E+02    2.3683503E+05    8.2765268E+01    2.5786166E+05
   -2.06   600.000   -9.667E-01    2.8082984E+05   -9.5426218E+01   -9.0631072E+02    2.5754863E+05    9.5422421E+01    2.8082988E+05
   -2.05   600.000   -1.065E+00    3.0489093E+05   -1.0660741E+02   -9.3362685E+02    2.7922495E+05    1.0660299E+02    3.0489097E+05
   -2.04   600.000   -1.166E+00    3.2998429E+05   -1.1572634E+02   -9.5968021E+02    3.0183594E+05    1.1572120E+02    3.2998433E+05
   -2.03   600.000   -1.271E+00    3.5603635E+05   -1.2212589E+02   -9.8916697E+02    3.2535131E+05    1.2211993E+02    3.5603639E+05
   -2.02   600.000   -1.379E+00    3.8295913E+05   -1.2515830E+02   -1.0281901E+03    3.4972918E+05    1.2515144E+02    3.8295918E+05
   -2.01   600.000   -1.491E+00    4.1065019E+05   -1.2431891E+02   -1.0840383E+03    3.7490630E+05    1.2431111E+02    4.1065024E+05
   -2.00   600.000   -1.607E+00    4.3899466E+05   -1.1942054E+02   -1.1647374E+03    4.0079104E+05    1.1941178E+02    4.3899471E+05
   -1.99   600.000   -1.726E+00    4.6786969E+05   -1.1077146E+02   -1.2783824E+03    4.2726194E+05    1.1076174E+02    4.6786975E+05
   -1.98   600.000   -1.850E+00    4.9715116E+05   -9.9298928E+01   -1.4322732E+03    4.5417412E+05    9.9288306E+01    4.9715122E+05
   -1.97   600.000   -1.977E+00    5.2672134E+05   -8.6554707E+01   -1.6319210E+03    4.8137324E+05    8.6543256E+01    5.2672140E+05
   -1.96   600.000   -2.108E+00    5.5647591E+05   -7.4555797E+01   -1.8800746E+03    5.0871482E+05    7.4543628E+01    5.5647597E+05
   -1.95   600.000   -2.243E+00    5.8632803E+05   -6.5452072E+01   -2.1759981E+03    5.3608447E+05    6.5439321E+01    5.8632809E+05
   -1.94   600.000   -2.381E+00    6.1620782E+05   -6.1059565E+01   -2.5152558E+03    5.6341395E+05    6.1046387E+01    6.1620789E+05
   -1.93   600.000   -2.523E+00    6.4605639E+05   -6.2340081E+01   -2.8901770E+03    5.9068849E+05    6.2326646E+01    6.4605646E+05
   -1.92   600.000   -2.669E+00    6.7581489E+05   -6.8933300E+01   -3.2909831E+03    6.1794300E+05    6.8919780E+01    6.7581496E+05
   -1.91   600.000   -2.818E+00    7.0541085E+05   -7.8852873E+01   -3.7073197E+03    6.4524702E+05    7.8839438E+01    7.0541091E+05
   -1.90   600.000   -2.971E+00    7.3474519E+05   -8.8443665E+01   -4.1297550E+03    6.7268135E+05    8.8430468E+01    7.3474525E+05
   -1.89   600.000   -3.127E+00    7.6368453E+05   -9.2663196E+01   -4.5507801E+03    7.0031101E+05    9.2650372E+01    7.6368459E+05
   -1.88   600.000   -3.287E+00    7.9206271E+05   -8.5696183E+01   -4.9650120E+03    7.2816019E+05    8.5683837E+01    7.9206277E+05
   -1.87   600.000   -3.451E+00    8.1969400E+05   -6.1840132E+01   -5.3685785E+03    7.5619446E+05    6.1828336E+01    8.1969407E+05
   -1.86   600.000   -3.618E+00    8.4639735E+05   -1.6524537E+01   -5.7579607E+03    7.8431396E+05    1.6513332E+01    8.4639741E+05
   -1.85   600.000   -3.788E+00    8.7202746E+05    5.2732219E+01   -6.1287502E+03    8.1235926E+05   -5.2742821E+01    8.7202752E+05
   -1.84   600.000   -3.962E+00    8.9650612E+05    1.4564192E+02   -6.4747987E+03    8.4012861E+05   -1.4565193E+02    8.9650618E+05
   -1.83   600.000   -4.139E+00    9.1984599E+05    2.5891711E+02   -6.7880953E+03    8.6740319E+05   -2.5892654E+02    9.1984605E+05
   -1.82   600.000   -4.318E+00    9.4216029E+05    3.8657815E+02   -7.0594668E+03    8.9397507E+05   -3.8658702E+02    9.4216035E+05
   -1.81   600.000   -4.501E+00    9.6365483E+05    5.2076203E+02   -7.2799245E+03    9.1967237E+05   -5.2077034E+02    9.6365489E+05
   -1.80   600.000   -4.687E+00    9.8460224E+05    6.5288399E+02   -7.4422726E+03    9.4437710E+05   -6.5289176E+02    9.8460230E+05
   -1.79   600.000   -4.875E+00    1.0053021E+06    7.7492648E+02   -7.5424994E+03    9.6803290E+05   -7.7493369E+02    1.0053021E+06
   -1.78   600.000   -5.065E+00    1.0260333E+06    8.8060324E+02   -7.5805496E+03    9.9064230E+05   -8.8060986E+02    1.0260334E+06
   -1.77   600.000   -5.259E+00    1.0470066E+06    9.6616561E+02   -7.5602952E+03    1.0122546E+06   -9.6617164E+02    1.0470067E+06
   -1.76   600.000   -5.454E+00    1.0683247E+06    1.0306741E+03   -7.4888283E+03    1.0329467E+06   -1.0306795E+03    1.0683248E+06
   -1.75   600.000   -5.652E+00    1.0899577E+06    1.0756551E+03   -7.3754397E+03    1.0527999E+06   -1.0756599E+03    1.0899578E+06
   -1.74   600.000   -5.853E+00    1.1117380E+06    1.1042108E+03   -7.2307320E+03    1.0718768E+06   -1.1042150E+03    1.1117381E+06
   -1.73   600.000   -6.056E+00    1.1333772E+06    1.1198288E+03   -7.0661874E+03    1.0902017E+06   -1.1198325E+03    1.1333773E+06
   -1.72   600.000   -6.261E+00    1.1545040E+06    1.1252871E+03   -6.8942493E+03    1.1077494E+06   -1.1252904E+03    1.1545041E+06
   -1.71   600.000   -6.469E+00    1.1747178E+06    1.1220628E+03   -6.7287109E+03    1.1244445E+06   -1.1220658E+03    1.1747178E+06
   -1.70   600.000   -6.679E+00    1.1936496E+06    1.1104894E+03   -6.5850469E+03    1.1401717E+06   -1.1104922E+03    1.1936496E+06
   -1.69   600.000   -6.892E+00    1.2110200E+06    1.0905999E+03   -6.4803428E+03    1.1547957E+06   -1.0906026E+03    1.2110201E+06
   -1.68   600.000   -7.107E+00    1.2266836E+06    1.0632835E+03   -6.4326300E+03    1.1681855E+06   -1.0632860E+03    1.2266837E+06
   -1.67   600.000   -7.325E+00    1.2406493E+06    1.0312290E+03   -6.4596606E+03    1.1802379E+06   -1.0312315E+03    1.2406494E+06
   -1.66   600.000   -7.545E+00    1.2530745E+06    9.9921694E+02   -6.5773613E+03    1.1908942E+06   -9.9921921E+02    1.2530746E+06
   -1.65   600.000   -7.767E+00    1.2642320E+06    9.7360787E+02   -6.7983105E+03    1.2001473E+06   -9.7360986E+02    1.2642321E+06
   -1.64   600.000   -7.992E+00    1.2744584E+06    9.6123018E+02   -7.1305568E+03    1.2080394E+06   -9.6123176E+02    1.2744585E+06
   -1.63   600.000   -8.219E+00    1.2840955E+06    9.6810406E+02   -7.5769559E+03    1.2146507E+06   -9.6810502E+02    1.2840956E+06
   -1.62   600.000   -8.449E+00    1.2934376E+06    9.9845910E+02   -8.1350340E+03    1.2200843E+06   -9.9845926E+02    1.2934377E+06
   -1.61   600.000   -8.681E+00    1.3026965E+06    1.0543125E+03   -8.7972997E+03    1.2244535E+06   -1.0543117E+03    1.3026966E+06
   -1.60   600.000   -8.916E+00    1.3119900E+06    1.1355936E+03   -9.5519517E+03    1.2278736E+06   -1.1355916E+03    1.3119901E+06
   -1.59   600.000   -9.155E+00    1.3213548E+06    1.2405788E+03   -1.0384013E+04    1.2304635E+06   -1.2405754E+03    1.3213549E+06
   -1.58   600.000   -9.396E+00    1.3307761E+06    1.3663428E+03   -1.1276906E+04    1.2323563E+06   -1.3663380E+03    1.3307762E+06
   -1.57   600.000   -9.641E+00    1.3402250E+06    1.5090453E+03   -1.2214310E+04    1.2337157E+06   -1.5090391E+03    1.3402251E+06
   -1.56   600.000   -9.889E+00    1.3496925E+06    1.6640740E+03   -1.3181821E+04    1.2347538E+06   -1.6640664E+03    1.3496926E+06
   -1.55   600.000   -1.014E+01    1.3592088E+06    1.8262386E+03   -1.4167802E+04    1.2357422E+06   -1.8262298E+03    1.3592089E+06
   -1.54   600.000   -1.039E+01    1.3688464E+06    1.9902517E+03   -1.5162932E+04    1.2370102E+06   -1.9902417E+03    1.3688465E+06
   -1.53   600.000   -1.065E+01    1.3787055E+06    2.1516056E+03   -1.6158464E+04    1.2389279E+06   -2.1515946E+03    1.3787055E+06
   -1.52   600.000   -1.091E+01    1.3888890E+06    2.3077096E+03   -1.7143825E+04    1.2418760E+06   -2.3076978E+03    1.3888891E+06
   -1.51   600.000   -1.117E+01    1.3994796E+06    2.4589026E+03   -1.8104594E+04    1.2462090E+06   -2.4588902E+03    1.3994797E+06
   -1.50   600.000   -1.144E+01    1.4105251E+06    2.6088301E+03   -1.9021835E+04    1.2522231E+06   -2.6088171E+03    1.4105251E+06
   -1.49   600.000   -1.171E+01    1.4220407E+06    2.7637857E+03   -1.9873383E+04    1.2601351E+06   -2.7637722E+03    1.4220408E+06
   -1.48   600.000   -1.198E+01    1.4340280E+06    2.9309481E+03   -2.0636943E+04    1.2700774E+06   -2.9309341E+03    1.4340281E+06
   -1.47   600.000   -1.226E+01    1.4465027E+06    3.1158918E+03   -2.1294316E+04    1.2821056E+06   -3.1158775E+03    1.4465027E+06
   -1.46   600.000   -1.254E+01    1.4595224E+06    3.3201061E+03   -2.1835640E+04    1.2962135E+06   -3.3200913E+03    1.4595224E+06
   -1.45   600.000   -1.282E+01    1.4732041E+06    3.5393380E+03   -2.2262555E+04    1.3123472E+06   -3.5393226E+03    1.4732041E+06
   -1.44   600.000   -1.310E+01    1.4877228E+06    3.7633200E+03   -2.2589502E+04    1.3304107E+06   -3.7633039E+03    1.4877229E+06
   -1.43   600.000   -1.339E+01    1.5032908E+06    3.9769506E+03   -2.2842843E+04    1.3502651E+06   -3.9769338E+03    1.5032908E+06
   -1.42   600.000   -1.368E+01    1.5201204E+06    4.1624963E+03   -2.3057987E+04    1.3717227E+06   -4.1624787E+03    1.5201205E+06
   -1.41   600.000   -1.398E+01    1.5383793E+06    4.3020892E+03   -2.3274997E+04    1.3945437E+06   -4.3020709E+03    1.5383793E+06
   -1.40   600.000   -1.427E+01    1.5581479E+06    4.3798214E+03   -2.3533334E+04    1.4184424E+06   -4.3798022E+03    1.5581479E+06
   -1.39   600.000   -1.457E+01    1.5793875E+06    4.3830272E+03   -2.3866440E+04    1.4431063E+06   -4.3830073E+03    1.5793875E+06
   -1.38   600.000   -1.488E+01    1.6019250E+06    4.3027521E+03   -2.4296944E+04    1.4682247E+06   -4.3027316E+03    1.6019250E+06
   -1.37   600.000   -1.519E+01    1.6254545E+06    4.1337335E+03   -2.4833292E+04    1.4935217E+06   -4.1337125E+03    1.6254546E+06
   -1.36   600.000   -1.550E+01    1.6495555E+06    3.8743501E+03   -2.5468519E+04    1.5187833E+06   -3.8743289E+03    1.6495556E+06
   -1.35   600.000   -1.581E+01    1.6737227E+06    3.5268872E+03   -2.6181547E+04    1.5438719E+06   -3.5268659E+03    1.6737227E+06
   -1.34   600.000   -1.613E+01    1.6974056E+06    3.0981844E+03   -2.6940892E+04    1.5687242E+06   -3.0981634E+03    1.6974056E+06
   -1.33   600.000   -1.644E+01    1.7200556E+06    2.6004172E+03   -2.7710117E+04    1.5933335E+06   -2.6003966E+03    1.7200557E+06
   -1.32   600.000   -1.677E+01    1.7411808E+06    2.0515477E+03   -2.8453974E+04    1.6177201E+06   -2.0515277E+03    1.7411808E+06
   -1.31   600.000   -1.709E+01    1.7604059E+06    1.4749803E+03   -2.9144056E+04    1.6418984E+06   -1.4749609E+03    1.7604060E+06
   -1.30   600.000   -1.741E+01    1.7775360E+06    8.9816383E+02   -2.9762946E+04    1.6658464E+06   -8.9814522E+02    1.7775360E+06
   -1.29   600.000   -1.774E+01    1.7926118E+06    3.5020266E+02   -3.0306227E+04    1.6894848E+06   -3.5018479E+02    1.7926118E+06
   -1.28   600.000   -1.807E+01    1.8059477E+06   -1.4118159E+02   -3.0782210E+04    1.7126698E+06    1.4119876E+02    1.8059477E+06
   -1.27   600.000   -1.841E+01    1.8181364E+06   -5.5285970E+02   -3.1209650E+04    1.7352028E+06    5.5287621E+02    1.8181365E+06
   -1.26   600.000   -1.874E+01    1.8300118E+06   -8.6921310E+02   -3.1614086E+04    1.7568558E+06    8.6922899E+02    1.8300118E+06
   -1.25   600.000   -1.908E+01    1.8425681E+06   -1.0843777E+03   -3.2023598E+04    1.7774118E+06    1.0843930E+03    1.8425681E+06
   -1.24   600.000   -1.942E+01    1.8568461E+06   -1.2035018E+03   -3.2464832E+04    1.7967144E+06    1.2035165E+03    1.8568461E+06
   -1.23   600.000   -1.976E+01    1.8738024E+06   -1.2427606E+03   -3.2960001E+04    1.8147206E+06    1.2427747E+03    1.8738024E+06
   -1.22   600.000   -2.011E+01    1.8941876E+06   -1.2279681E+03   -3.3525262E+04    1.8315482E+06    1.2279816E+03    1.8941876E+06
   -1.21   600.000   -2.046E+01    1.9184542E+06   -1.1918161E+03   -3.4170495E+04    1.8475090E+06    1.1918291E+03    1.9184542E+06
   -1.20   600.000   -2.081E+01    1.9467120E+06   -1.1700320E+03   -3.4900075E+04    1.8631170E+06    1.1700445E+03    1.9467120E+06
   -1.19   600.000   -2.117E+01    1.9787379E+06   -1.1970035E+03   -3.5714006E+04    1.8790686E+06    1.1970157E+03    1.9787379E+06
   -1.18   600.000   -2.154E+01    2.0140323E+06   -1.3015681E+03   -3.6608752E+04    1.8961919E+06    1.3015801E+03    2.0140323E+06
   -1.17   600.000   -2.191E+01    2.0519081E+06   -1.5036664E+03   -3.7577387E+04    1.9153711E+06    1.5036784E+03    2.0519081E+06
   -1.16   600.000   -2.228E+01    2.0915897E+06   -1.8124126E+03   -3.8609018E+04    1.9374555E+06    1.8124249E+03    2.0915897E+06
   -1.15   600.000   -2.266E+01    2.1323001E+06   -2.2258901E+03   -3.9687839E+04    1.9631642E+06    2.2259029E+03    2.1323001E+06
   -1.14   600.000   -2.305E+01    2.1733235E+06   -2.7326676E+03   -4.0792420E+04    1.9929993E+06    2.7326810E+03    2.1733235E+06
   -1.13   600.000   -2.345E+01    2.2140389E+06   -3.3147086E+03   -4.1895879E+04    2.0271762E+06    3.3147228E+03    2.2140389E+06
   -1.12   600.000   -2.385E+01    2.2539305E+06   -3.9510483E+03   -4.2967471E+04    2.0655812E+06    3.9510633E+03    2.2539305E+06
   -1.11   600.000   -2.425E+01    2.2925853E+06   -4.6214211E+03   -4.3975711E+04    2.1077616E+06    4.6214370E+03    2.2925853E+06
   -1.10   600.000   -2.467E+01    2.3296869E+06   -5.3090060E+03   -4.4892766E+04    2.1529491E+06    5.3090228E+03    2.3296869E+06
   -1.09   600.000   -2.509E+01    2.3650123E+06   -6.0016598E+03   -4.5699477E+04    2.2001173E+06    6.0016772E+03    2.3650123E+06
   -1.08   600.000   -2.551E+01    2.3984325E+06   -6.6914071E+03   -4.6390230E+04    2.2480661E+06    6.6914249E+03    2.3984325E+06
   -1.07   600.000   -2.594E+01    2.4299136E+06   -7.3724558E+03   -4.6976882E+04    2.2955278E+06    7.3724738E+03    2.4299136E+06
   -1.06   600.000   -2.638E+01    2.4595150E+06   -8.0384424E+03   -4.7490994E+04    2.3412824E+06    8.0384602E+03    2.4595150E+06
   -1.05   600.000   -2.682E+01    2.4873803E+06   -8.6798380E+03   -4.7983711E+04    2.3842732E+06    8.6798554E+03    2.4873803E+06
   -1.04   600.000   -2.727E+01    2.5137194E+06   -9.2823804E+03   -4.8522880E+04    2.4237070E+06    9.2823969E+03    2.5137194E+06
   -1.03   600.000   -2.772E+01    2.5387839E+06   -9.8270650E+03   -4.9187489E+04    2.4591265E+06    9.8270804E+03    2.5387839E+06
   -1.02   600.000   -2.817E+01    2.5628389E+06   -1.0291765E+04   -5.0060267E+04    2.4904445E+06    1.0291779E+04    2.5628389E+06
   -1.01   600.000   -2.863E+01    2.5861380E+06   -1.0654104E+04   -5.1219837E+04    2.5179328E+06    1.0654116E+04    2.5861380E+06
   -1.00   600.000   -2.909E+01    2.6089044E+06   -1.0894897E+04   -5.2734020E+04    2.5421683E+06    1.0894906E+04    2.6089044E+06
   -0.99   600.000   -2.955E+01    2.6313203E+06   -1.1001344E+04   -5.4655397E+04    2.5639415E+06    1.1001352E+04    2.6313203E+06
   -0.98   600.000   -3.001E+01    2.6535220E+06   -1.0969209E+04   -5.7019432E+04    2.5841423E+06    1.0969214E+04    2.6535221E+06
   -0.97   600.000   -3.048E+01    2.6755966E+06   -1.0803372E+04   -5.9844610E+04    2.6036380E+06    1.0803375E+04    2.6755967E+06
   -0.96   600.000   -3.094E+01    2.6975772E+06   -1.0516476E+04   -6.3133650E+04    2.6231612E+06    1.0516476E+04    2.6975772E+06
   -0.95   600.000   -3.140E+01    2.7194353E+06   -1.0125792E+04   -6.6874917E+04    2.6432247E+06    1.0125788E+04    2.7194353E+06
   -0.94   600.000   -3.187E+01    2.7410734E+06   -9.6489145E+03   -7.1043673E+04    2.6640757E+06    9.6489085E+03    2.7410734E+06
   -0.93   600.000   -3.233E+01    2.7623208E+06   -9.0993288E+03   -7.5603315E+04    2.6856946E+06    9.0993201E+03    2.7623209E+06
   -0.92   600.000   -3.279E+01    2.7829381E+06   -8.4830260E+03   -8.0506937E+04    2.7078364E+06    8.4830148E+03    2.7829382E+06
   -0.91   600.000   -3.326E+01    2.8026332E+06   -7.7971661E+03   -8.5699290E+04    2.7301025E+06    7.7971525E+03    2.8026333E+06
   -0.90   600.000   -3.372E+01    2.8210913E+06   -7.0311821E+03   -9.1118540E+04    2.7520285E+06    7.0311663E+03    2.8210914E+06
   -0.89   600.000   -3.418E+01    2.8380164E+06   -6.1699679E+03   -9.6696725E+04    2.7731693E+06    6.1699500E+03    2.8380165E+06
   -0.88   600.000   -3.464E+01    2.8531815E+06   -5.1981351E+03   -1.0235791E+05    2.7931690E+06    5.1981152E+03    2.8531815E+06
   -0.87   600.000   -3.510E+01    2.8664789E+06   -4.1040592E+03   -1.0801391E+05    2.8118094E+06    4.1040373E+03    2.8664789E+06
   -0.86   600.000   -3.556E+01    2.8779627E+06   -2.8826691E+03   -1.1355895E+05    2.8290345E+06    2.8826453E+03    2.8779627E+06
   -0.85   600.000   -3.602E+01    2.8878723E+06   -1.5365588E+03   -1.1886556E+05    2.8449570E+06    1.5365331E+03    2.8878724E+06
   -0.84   600.000   -3.648E+01    2.8966313E+06   -7.5731485E+01   -1.2378438E+05    2.8598483E+06    7.5703635E+01    2.8966314E+06
   -0.83   600.000   -3.693E+01    2.9048155E+06    1.4832213E+03   -1.2814945E+05    2.8741160E+06   -1.4832514E+03    2.9048156E+06
   -0.82   600.000   -3.739E+01    2.9130941E+06    3.1176600E+03   -1.3178895E+05    2.8882680E+06   -3.1176924E+03    2.9130941E+06
   -0.81   600.000   -3.784E+01    2.9221506E+06    4.7987256E+03   -1.3453957E+05    2.9028625E+06   -4.7987605E+03    2.9221507E+06
   -0.80   600.000   -3.830E+01    2.9325984E+06    6.4906709E+03   -1.3626216E+05    2.9184463E+06   -6.4907085E+03    2.9325985E+06
   -0.79   600.000   -3.875E+01    2.9449060E+06    8.1504696E+03   -1.3685586E+05    2.9354875E+06   -8.1505098E+03    2.9449060E+06
   -0.78   600.000   -3.920E+01    2.9593489E+06    9.7286668E+03   -1.3626910E+05    2.9543124E+06   -9.7287097E+03    2.9593490E+06
   -0.77   600.000   -3.965E+01    2.9759967E+06    1.1172139E+04   -1.3450652E+05    2.9750606E+06   -1.1172185E+04    2.9759968E+06
   -0.76   600.000   -4.009E+01    2.9947357E+06    1.2428733E+04   -1.3163145E+05    2.9976683E+06   -1.2428782E+04    2.9947357E+06
   -0.75   600.000   -4.054E+01    3.0153181E+06    1.3452926E+04   -1.2776414E+05    3.0218847E+06   -1.3452977E+04    3.0153181E+06
   -0.74   600.000   -4.098E+01    3.0374234E+06    1.4211057E+04   -1.2307549E+05    3.0473188E+06   -1.4211111E+04    3.0374234E+06
   -0.73   600.000   -4.143E+01    3.0607129E+06    1.4684623E+04   -1.1777630E+05    3.0735040E+06   -1.4684679E+04    3.0607129E+06
   -0.72   600.000   -4.187E+01    3.0848650E+06    1.4870670E+04   -1.1210177E+05    3.0999635E+06   -1.4870729E+04    3.0848650E+06
   -0.71   600.000   -4.231E+01    3.1095817E+06    1.4779335E+04   -1.0629185E+05    3.1262596E+06   -1.4779396E+04    3.1095817E+06
   -0.70   600.000   -4.274E+01    3.1345670E+06    1.4429550E+04   -1.0056880E+05    3.1520132E+06   -1.4429614E+04    3.1345670E+06
   -0.69   600.000   -4.318E+01    3.1594840E+06    1.3844510E+04   -9.5114919E+04    3.1768893E+06   -1.3844576E+04    3.1594840E+06
   -0.68   600.000   -4.361E+01    3.1839065E+06    1.3048375E+04   -9.0053747E+04    3.2005569E+06   -1.3048442E+04    3.1839065E+06
   -0.67   600.000   -4.405E+01    3.2072796E+06    1.2065018E+04   -8.5438752E+04    3.2226380E+06   -1.2065088E+04    3.2072796E+06
   -0.66   600.000   -4.448E+01    3.2289086E+06    1.0918760E+04   -8.1252006E+04    3.2426676E+06   -1.0918832E+04    3.2289086E+06
   -0.65   600.000   -4.491E+01    3.2479845E+06    9.6362806E+03   -7.7413878E+04    3.2600823E+06   -9.6363540E+03    3.2479845E+06
   -0.64   600.000   -4.534E+01    3.2636495E+06    8.2485845E+03   -7.3802488E+04    3.2742483E+06   -8.2486595E+03    3.2636496E+06
   -0.63   600.000   -4.577E+01    3.2750929E+06    6.7919358E+03   -7.0279677E+04    3.2845268E+06   -6.7920124E+03    3.2750929E+06
   -0.62   600.000   -4.621E+01    3.2816577E+06    5.3070663E+03   -6.6718882E+04    3.2903614E+06   -5.3071444E+03    3.2816578E+06
   -0.61   600.000   -4.664E+01    3.2829361E+06    3.8365718E+03   -6.3029829E+04    3.2913668E+06   -3.8366515E+03    3.2829362E+06
   -0.60   600.000   -4.707E+01    3.2788296E+06    2.4210620E+03   -5.9175510E+04    3.2873948E+06   -2.4211432E+03    3.2788297E+06
   -0.59   600.000   -4.750E+01    3.2695612E+06    1.0951261E+03   -5.5178456E+04    3.2785579E+06   -1.0952086E+03    3.2695613E+06
   -0.58   600.000   -4.794E+01    3.2556368E+06   -1.1569255E+02   -5.1115596E+04    3.2652044E+06    1.1560877E+02    3.2556368E+06
   -0.57   600.000   -4.837E+01    3.2377658E+06   -1.1960382E+03   -4.7103397E+04    3.2478502E+06    1.1959535E+03    3.2377659E+06
   -0.56   600.000   -4.881E+01    3.2167601E+06   -2.1397816E+03   -4.3276965E+04    3.2270833E+06    2.1396962E+03    3.2167602E+06
   -0.55   600.000   -4.925E+01    3.1934314E+06   -2.9474549E+03   -3.9767765E+04    3.2034638E+06    2.9473693E+03    3.1934316E+06
   -0.54   600.000   -4.969E+01    3.1685096E+06   -3.6230839E+03   -3.6684358E+04    3.1774447E+06    3.6229986E+03    3.1685097E+06
   -0.53   600.000   -5.014E+01    3.1425897E+06   -4.1715081E+03   -3.4099439E+04    3.1493292E+06    4.1714237E+03    3.1425898E+06
   -0.52   600.000   -5.058E+01    3.1161131E+06   -4.5969766E+03   -3.2044799E+04    3.1192717E+06    4.5968939E+03    3.1161132E+06
   -0.51   600.000   -5.104E+01    3.0893743E+06   -4.9032838E+03   -3.0514144E+04    3.0873197E+06    4.9032035E+03    3.0893745E+06
   -0.50   600.000   -5.149E+01    3.0625435E+06   -5.0952195E+03   -2.9472188E+04    3.0534814E+06    5.0951422E+03    3.0625436E+06
   -0.49   600.000   -5.196E+01    3.0356940E+06   -5.1808192E+03   -2.8867270E+04    3.0178028E+06    5.1807456E+03    3.0356941E+06
   -0.48   600.000   -5.243E+01    3.0088305E+06   -5.1738330E+03   -2.8644218E+04    2.9804362E+06    5.1737636E+03    3.0088306E+06
   -0.47   600.000   -5.290E+01    2.9819178E+06   -5.0958756E+03   -2.8754411E+04    2.9416880E+06    5.0958106E+03    2.9819179E+06
   -0.46   600.000   -5.339E+01    2.9549133E+06   -4.9777691E+03   -2.9161127E+04    2.9020368E+06    4.9777086E+03    2.9549134E+06
   -0.45   600.000   -5.388E+01    2.9278042E+06   -4.8596405E+03   -2.9839858E+04    2.8621191E+06    4.8595845E+03    2.9278043E+06
   -0.44   600.000   -5.438E+01    2.9006460E+06   -4.7894511E+03   -3.0774885E+04    2.8226870E+06    4.7893993E+03    2.9006461E+06
   -0.43   600.000   -5.490E+01    2.8735934E+06   -4.8198633E+03   -3.1954306E+04    2.7845427E+06    4.8198153E+03    2.8735936E+06
   -0.42   600.000   -5.542E+01    2.8469129E+06   -5.0036480E+03   -3.3365763E+04    2.7484606E+06    5.0036033E+03    2.8469130E+06
   -0.41   600.000   -5.595E+01    2.8209684E+06   -5.3880985E+03   -3.4994311E+04    2.7151082E+06    5.3880563E+03    2.8209685E+06
   -0.40   600.000   -5.650E+01    2.7961785E+06   -6.0090999E+03   -3.6822700E+04    2.6849759E+06    6.0090595E+03    2.7961786E+06
   -0.39   600.000   -5.706E+01    2.7729512E+06   -6.8856365E+03   -3.8833499E+04    2.6583254E+06    6.8855973E+03    2.7729513E+06
   -0.38   600.000   -5.763E+01    2.7516110E+06   -8.0156433E+03   -4.1012050E+04    2.6351641E+06    8.0156046E+03    2.7516111E+06
   -0.37   600.000   -5.821E+01    2.7323350E+06   -9.3741587E+03   -4.3349409E+04    2.6152487E+06    9.3741200E+03    2.7323351E+06
   -0.36   600.000   -5.880E+01    2.7151152E+06   -1.0914550E+04   -4.5844680E+04    2.5981178E+06    1.0914511E+04    2.7151153E+06
   -0.35   600.000   -5.941E+01    2.6997552E+06   -1.2573031E+04   -4.8506282E+04    2.5831492E+06    1.2572990E+04    2.6997553E+06
   -0.34   600.000   -6.002E+01    2.6859001E+06   -1.4275857E+04   -5.1351595E+04    2.5696310E+06    1.4275815E+04    2.6859002E+06
   -0.33   600.000   -6.065E+01    2.6730912E+06   -1.5947818E+04   -5.4404446E+04    2.5568383E+06    1.5947776E+04    2.6730913E+06
   -0.32   600.000   -6.128E+01    2.6608291E+06   -1.7520298E+04   -5.7690178E+04    2.5441019E+06    1.7520254E+04    2.6608292E+06
   -0.31   600.000   -6.193E+01    2.6486323E+06   -1.8937488E+04   -6.1228645E+04    2.5308639E+06    1.8937443E+04    2.6486324E+06
   -0.30   600.000   -6.258E+01    2.6360808E+06   -2.0160124E+04   -6.5026189E+04    2.5167159E+06    2.0160077E+04    2.6360809E+06
   -0.29   600.000   -6.324E+01    2.6228422E+06   -2.1166953E+04   -6.9068021E+04    2.5014191E+06    2.1166905E+04    2.6228423E+06
   -0.28   600.000   -6.390E+01    2.6086833E+06   -2.1954615E+04   -7.3312501E+04    2.4849100E+06    2.1954567E+04    2.6086834E+06
   -0.27   600.000   -6.457E+01    2.5934741E+06   -2.2536568E+04   -7.7688593E+04    2.4672931E+06    2.2536520E+04    2.5934742E+06
   -0.26   600.000   -6.525E+01    2.5771889E+06   -2.2941296E+04   -8.2097463E+04    2.4488246E+06    2.2941249E+04    2.5771890E+06
   -0.25   600.000   -6.594E+01    2.5599074E+06   -2.3209629E+04   -8.6418841E+04    2.4298900E+06    2.3209583E+04    2.5599075E+06
   -0.24   600.000   -6.663E+01    2.5418145E+06   -2.3390927E+04   -9.0522183E+04    2.4109763E+06    2.3390883E+04    2.5418146E+06
   -0.23   600.000   -6.733E+01    2.5231947E+06   -2.3538140E+04   -9.4281623E+04    2.3926394E+06    2.3538099E+04    2.5231948E+06
   -0.22   600.000   -6.803E+01    2.5044185E+06   -2.3702167E+04   -9.7592495E+04    2.3754661E+06    2.3702130E+04    2.5044186E+06
   -0.21   600.000   -6.874E+01    2.4859179E+06   -2.3926267E+04   -1.0038621E+05    2.3600300E+06    2.3926234E+04    2.4859180E+06
   -0.20   600.000   -6.946E+01    2.4681544E+06   -2.4241374E+04   -1.0264020E+05    2.3468445E+06    2.4241346E+04    2.4681545E+06
   -0.19   600.000   -7.019E+01    2.4515854E+06   -2.4663003E+04   -1.0438079E+05    2.3363163E+06    2.4662979E+04    2.4515855E+06
   -0.18   600.000   -7.092E+01    2.4366327E+06   -2.5190183E+04   -1.0567841E+05    2.3287068E+06    2.5190163E+04    2.4366328E+06
   -0.17   600.000   -7.166E+01    2.4236602E+06   -2.5806497E+04   -1.0663678E+05    2.3241081E+06    2.5806481E+04    2.4236603E+06
   -0.16   600.000   -7.240E+01    2.4129594E+06   -2.6482951E+04   -1.0737833E+05    2.3224369E+06    2.6482939E+04    2.4129595E+06
   -0.15   600.000   -7.315E+01    2.4047419E+06   -2.7182125E+04   -1.0802829E+05    2.3234467E+06    2.7182116E+04    2.4047420E+06
   -0.14   600.000   -7.391E+01    2.3991342E+06   -2.7862831E+04   -1.0869964E+05    2.3267556E+06    2.7862825E+04    2.3991343E+06
   -0.13   600.000   -7.467E+01    2.3961714E+06   -2.8484548E+04   -1.0948001E+05    2.3318837E+06    2.8484544E+04    2.3961715E+06
   -0.12   600.000   -7.544E+01    2.3957880E+06   -2.9011032E+04   -1.1042184E+05    2.3382957E+06    2.9011030E+04    2.3957881E+06
   -0.11   600.000   -7.622E+01    2.3978102E+06   -2.9412887E+04   -1.1153684E+05    2.3454445E+06    2.9412886E+04    2.3978103E+06
   -0.10   600.000   -7.700E+01    2.4019552E+06   -2.9669121E+04   -1.1279582E+05    2.3528144E+06    2.9669120E+04    2.4019553E+06
   -0.09   600.000   -7.779E+01    2.4078438E+06   -2.9767964E+04   -1.1413380E+05    2.3599621E+06    2.9767963E+04    2.4078439E+06
   -0.08   600.000   -7.858E+01    2.4150315E+06   -2.9707173E+04   -1.1545978E+05    2.3665547E+06    2.9707172E+04    2.4150316E+06
   -0.07   600.000   -7.938E+01    2.4230561E+06   -2.9493911E+04   -1.1666862E+05    2.3723997E+06    2.9493909E+04    2.4230562E+06
   -0.06   600.000   -8.018E+01    2.4314930E+06   -2.9144081E+04   -1.1765281E+05    2.3774617E+06    2.9144078E+04    2.4314931E+06
   -0.05   600.000   -8.099E+01    2.4400070E+06   -2.8680916E+04   -1.1831174E+05    2.3818620E+06    2.8680913E+04    2.4400071E+06
   -0.04   600.000   -8.181E+01    2.4483883E+06   -2.8132729E+04   -1.1855783E+05    2.3858586E+06    2.8132725E+04    2.4483883E+06
   -0.03   600.000   -8.263E+01    2.4565633E+06   -2.7529925E+04   -1.1832016E+05    2.3898074E+06    2.7529921E+04    2.4565634E+06
   -0.02   600.000   -8.346E+01    2.4645801E+06   -2.6901640E+04   -1.1754694E+05    2.3941114E+06    2.6901635E+04    2.4645802E+06
   -0.01   600.000   -8.429E+01    2.4725720E+06   -2.6272518E+04   -1.1620839E+05    2.3991659E+06    2.6272513E+04    2.4725721E+06
    0.00   600.000   -8.513E+01    2.4807099E+06   -2.5660171E+04   -1.1430036E+05    2.4053082E+06    2.5660165E+04    2.4807099E+06
    0.01   600.000   -8.598E+01    2.4891516E+06   -2.5073755E+04   -1.1184805E+05    2.4127762E+06    2.5073750E+04    2.4891517E+06
    0.02   600.000   -8.683E+01    2.4979990E+06   -2.4513941E+04   -1.0890857E+05    2.4216802E+06    2.4513936E+04    2.4979991E+06
    0.03   600.000   -8.769E+01    2.5072645E+06   -2.3974251E+04   -1.0557062E+05    2.4319870E+06    2.3974248E+04    2.5072646E+06
    0.04   600.000   -8.855E+01    2.5168484E+06   -2.3443468E+04   -1.0195026E+05    2.4435126E+06    2.3443467E+04    2.5168484E+06
    0.05   600.000   -8.943E+01    2.5265261E+06   -2.2908503E+04   -9.8182407E+04    2.4559230E+06    2.2908504E+04    2.5265262E+06
    0.06   600.000   -9.030E+01    2.5359435E+06   -2.2357029E+04   -9.4408602E+04    2.4687406E+06    2.2357032E+04    2.5359436E+06
    0.07   600.000   -9.119E+01    2.5446207E+06   -2.1779258E+04   -9.0762155E+04    2.4813567E+06    2.1779264E+04    2.5446207E+06
    0.08   600.000   -9.208E+01    2.5519674E+06   -2.1168570E+04   -8.7352743E+04    2.4930518E+06    2.1168580E+04    2.5519675E+06
    0.09   600.000   -9.298E+01    2.5573129E+06   -2.0521103E+04   -8.4252863E+04    2.5030263E+06    2.0521116E+04    2.5573130E+06
    0.10   600.000   -9.389E+01    2.5599507E+06   -1.9834779E+04   -8.1488811E+04    2.5104428E+06    1.9834796E+04    2.5599507E+06
    0.11   600.000   -9.480E+01    2.5591955E+06   -1.9108422E+04   -7.9038315E+04    2.5144797E+06    1.9108442E+04    2.5591955E+06
    0.12   600.000   -9.573E+01    2.5544454E+06   -1.8341525E+04   -7.6835801E+04    2.5143916E+06    1.8341548E+04    2.5544454E+06
    0.13   600.000   -9.665E+01    2.5452378E+06   -1.7534898E+04   -7.4784533E+04    2.5095720E+06    1.7534924E+04    2.5452378E+06
    0.14   600.000   -9.758E+01    2.5312903E+06   -1.6691945E+04   -7.2773124E+04    2.4996074E+06    1.6691974E+04    2.5312904E+06
    0.15   600.000   -9.852E+01    2.5125182E+06   -1.5819925E+04   -7.0692886E+04    2.4843147E+06    1.5819955E+04    2.5125183E+06
    0.16   600.000   -9.946E+01    2.4890260E+06   -1.4930404E+04   -6.8452521E+04    2.4637526E+06    1.4930436E+04    2.4890260E+06
    0.17   600.000   -1.004E+02    2.4610765E+06   -1.4038395E+04   -6.5987845E+04    2.4382046E+06    1.4038428E+04    2.4610765E+06
    0.18   600.000   -1.013E+02    2.4290446E+06   -1.3160201E+04   -6.3265857E+04    2.4081349E+06    1.3160235E+04    2.4290446E+06
    0.19   600.000   -1.023E+02    2.3933671E+06   -1.2310616E+04   -6.0283937E+04    2.3741251E+06    1.2310650E+04    2.3933672E+06
    0.20   600.000   -1.032E+02    2.3544981E+06   -1.1500460E+04   -5.7065647E+04    2.3368030E+06    1.1500493E+04    2.3544981E+06
    0.21   600.000   -1.041E+02    2.3128764E+06   -1.0735344E+04   -5.3654720E+04    2.2967745E+06    1.0735377E+04    2.3128765E+06
    0.22   600.000   -1.051E+02    2.2689099E+06   -1.0016072E+04   -5.0108487E+04    2.2545706E+06    1.0016105E+04    2.2689099E+06
    0.23   600.000   -1.060E+02    2.2229719E+06   -9.3404433E+03   -4.6491747E+04    2.2106155E+06    9.3404741E+03    2.2229719E+06
    0.24   600.000   -1.069E+02    2.1754085E+06   -8.7057289E+03   -4.2871718E+04    2.1652195E+06    8.7057581E+03    2.1754086E+06
    0.25   600.000   -1.078E+02    2.1265501E+06   -8.1109852E+03   -3.9314375E+04    2.1185957E+06    8.1110126E+03    2.1265501E+06
    0.26   600.000   -1.087E+02    2.0767221E+06   -7.5585607E+03   -3.5881965E+04    2.0708955E+06    7.5585861E+03    2.0767222E+06
    0.27   600.000   -1.095E+02    2.0262551E+06   -7.0545908E+03   -3.2631116E+04    2.0222539E+06    7.0546140E+03    2.0262551E+06
    0.28   600.000   -1.104E+02    1.9754892E+06   -6.6086203E+03   -2.9610924E+04    1.9728331E+06    6.6086414E+03    1.9754892E+06
    0.29   600.000   -1.112E+02    1.9247757E+06   -6.2326488E+03   -2.6860788E+04    1.9228560E+06    6.2326678E+03    1.9247758E+06
    0.30   600.000   -1.121E+02    1.8744744E+06   -5.9398328E+03   -2.4408330E+04    1.8726210E+06    5.9398497E+03    1.8744744E+06
    0.31   600.000   -1.129E+02    1.8249476E+06   -5.7429444E+03   -2.2268125E+04    1.8224983E+06    5.7429593E+03    1.8249477E+06
    0.32   600.000   -1.137E+02    1.7765539E+06   -5.6526233E+03   -2.0441880E+04    1.7729099E+06    5.6526364E+03    1.7765539E+06
    0.33   600.000   -1.144E+02    1.7296398E+06   -5.6755298E+03   -1.8920255E+04    1.7243017E+06    5.6755411E+03    1.7296399E+06
    0.34   600.000   -1.152E+02    1.6845337E+06   -5.8126531E+03   -1.7685844E+04    1.6771141E+06    5.8126627E+03    1.6845338E+06
    0.35   600.000   -1.159E+02    1.6415403E+06   -6.0581300E+03   -1.6716483E+04    1.6317588E+06    6.0581382E+03    1.6415404E+06
    0.36   600.000   -1.166E+02    1.6009363E+06   -6.3989008E+03   -1.5987966E+04    1.5886026E+06    6.3989075E+03    1.6009364E+06
    0.37   600.000   -1.173E+02    1.5629680E+06   -6.8153702E+03   -1.5475673E+04    1.5479614E+06    6.8153755E+03    1.5629680E+06
    0.38   600.000   -1.180E+02    1.5278488E+06   -7.2830192E+03   -1.5155148E+04    1.5100998E+06    7.2830231E+03    1.5278489E+06
    0.39   600.000   -1.187E+02    1.4957588E+06   -7.7747158E+03   -1.5002217E+04    1.4752358E+06    7.7747186E+03    1.4957589E+06
    0.40   600.000   -1.193E+02    1.4668431E+06   -8.2633518E+03   -1.4993426E+04    1.4435468E+06    8.2633535E+03    1.4668432E+06
    0.41   600.000   -1.200E+02    1.4412114E+06   -8.7244060E+03   -1.5107401E+04    1.4151759E+06    8.7244070E+03    1.4412115E+06
    0.42   600.000   -1.206E+02    1.4189372E+06   -9.1380748E+03   -1.5327207E+04    1.3902362E+06    9.1380752E+03    1.4189372E+06
    0.43   600.000   -1.212E+02    1.4000566E+06   -9.4906895E+03   -1.5643048E+04    1.3688146E+06    9.4906895E+03    1.4000567E+06
    0.44   600.000   -1.218E+02    1.3845691E+06   -9.7752541E+03   -1.6054181E+04    1.3509744E+06    9.7752541E+03    1.3845691E+06
    0.45   600.000   -1.224E+02    1.3724393E+06   -9.9910726E+03   -1.6568815E+04    1.3367580E+06    9.9910727E+03    1.3724393E+06
    0.46   600.000   -1.230E+02    1.3636018E+06   -1.0142582E+04   -1.7201309E+04    1.3261897E+06    1.0142582E+04    1.3636019E+06
    0.47   600.000   -1.235E+02    1.3579684E+06   -1.0237640E+04   -1.7966828E+04    1.3192791E+06    1.0237641E+04    1.3579685E+06
    0.48   600.000   -1.241E+02    1.3554354E+06   -1.0285589E+04   -1.8874624E+04    1.3160220E+06    1.0285591E+04    1.3554355E+06
    0.49   600.000   -1.246E+02    1.3558888E+06   -1.0295410E+04   -1.9921684E+04    1.3163975E+06    1.0295412E+04    1.3558889E+06
    0.50   600.000   -1.252E+02    1.3592055E+06   -1.0274218E+04   -2.1088543E+04    1.3203592E+06    1.0274221E+04    1.3592055E+06
    0.51   600.000   -1.257E+02    1.3652480E+06   -1.0226281E+04   -2.2338567E+04    1.3278200E+06    1.0226284E+04    1.3652480E+06
    0.52   600.000   -1.263E+02    1.3738546E+06   -1.0152669E+04   -2.3621152E+04    1.3386338E+06    1.0152673E+04    1.3738547E+06
    0.53   600.000   -1.268E+02    1.3848269E+06   -1.0051594E+04   -2.4878394E+04    1.3525771E+06    1.0051599E+04    1.3848270E+06
    0.54   600.000   -1.274E+02    1.3979176E+06   -9.9193997E+03   -2.6054111E+04    1.3693360E+06    9.9194046E+03    1.3979177E+06
    0.55   600.000   -1.279E+02    1.4128219E+06   -9.7520111E+03   -2.7103693E+04    1.3885032E+06    9.7520163E+03    1.4128220E+06
    0.56   600.000   -1.285E+02    1.4291743E+06   -9.5464735E+03   -2.8003194E+04    1.4095828E+06    9.5464788E+03    1.4291743E+06
    0.57   600.000   -1.290E+02    1.4465516E+06   -9.3020905E+03   -2.8756252E+04    1.4320060E+06    9.3020959E+03    1.4465516E+06
    0.58   600.000   -1.296E+02    1.4644827E+06   -9.0207544E+03   -2.9397735E+04    1.4551506E+06    9.0207597E+03    1.4644827E+06
    0.59   600.000   -1.302E+02    1.4824646E+06   -8.7063119E+03   -2.9993413E+04    1.4783657E+06    8.7063171E+03    1.4824647E+06
    0.60   600.000   -1.307E+02    1.4999854E+06   -8.3631758E+03   -3.0635301E+04    1.5009977E+06    8.3631809E+03    1.4999854E+06
    0.61   600.000   -1.313E+02    1.5165515E+06   -7.9946984E+03   -3.1432769E+04    1.5224183E+06    7.9947032E+03    1.5165515E+06
    0.62   600.000   -1.318E+02    1.5317195E+06   -7.6019336E+03   -3.2500050E+04    1.5420555E+06    7.6019379E+03    1.5317195E+06
    0.63   600.000   -1.324E+02    1.5451282E+06   -7.1832928E+03   -3.3941497E+04    1.5594268E+06    7.1832963E+03    1.5451282E+06
    0.64   600.000   -1.330E+02    1.5565269E+06   -6.7352901E+03   -3.5836692E+04    1.5741742E+06    6.7352926E+03    1.5565269E+06
    0.65   600.000   -1.336E+02    1.5657977E+06   -6.2542163E+03   -3.8227905E+04    1.5860956E+06    6.2542176E+03    1.5657978E+06
    0.66   600.000   -1.342E+02    1.5729663E+06   -5.7382885E+03   -4.1112335E+04    1.5951697E+06    5.7382884E+03    1.5729663E+06
    0.67   600.000   -1.348E+02    1.5782008E+06   -5.1896935E+03   -4.4440714E+04    1.6015665E+06    5.1896918E+03    1.5782008E+06
    0.68   600.000   -1.354E+02    1.5817977E+06   -4.6159889E+03   -4.8122586E+04    1.6056410E+06    4.6159854E+03    1.5817977E+06
    0.69   600.000   -1.360E+02    1.5841561E+06   -4.0305248E+03   -5.2037187E+04    1.6079052E+06    4.0305195E+03    1.5841561E+06
    0.70   600.000   -1.366E+02    1.5857411E+06   -3.4518178E+03   -5.6047770E+04    1.6089819E+06    3.4518107E+03    1.5857411E+06
    0.71   600.000   -1.372E+02    1.5870403E+06   -2.9020549E+03   -6.0016848E+04    1.6095427E+06    2.9020462E+03    1.5870403E+06
    0.72   600.000   -1.379E+02    1.5885155E+06   -2.4050452E+03   -6.3820008E+04    1.6102385E+06    2.4050349E+03    1.5885155E+06
    0.73   600.000   -1.385E+02    1.5905548E+06   -1.9839300E+03   -6.7356614E+04    1.6116303E+06    1.9839185E+03    1.5905548E+06
    0.74   600.000   -1.392E+02    1.5934283E+06   -1.6588700E+03   -7.0556424E+04    1.6141280E+06    1.6588575E+03    1.5934283E+06
    0.75   600.000   -1.399E+02    1.5972542E+06   -1.4448302E+03   -7.3381846E+04    1.6179445E+06    1.4448170E+03    1.5972542E+06
    0.76   600.000   -1.406E+02    1.6019779E+06   -1.3495747E+03   -7.5826106E+04    1.6230696E+06    1.3495612E+03    1.6019779E+06
    0.77   600.000   -1.413E+02    1.6073695E+06   -1.3720788E+03   -7.7908145E+04    1.6292677E+06    1.3720651E+03    1.6073696E+06
    0.78   600.000   -1.420E+02    1.6130401E+06   -1.5017021E+03   -7.9665486E+04    1.6360992E+06    1.5016886E+03    1.6130401E+06
    0.79   600.000   -1.428E+02    1.6184757E+06   -1.7185476E+03   -8.1146578E+04    1.6429640E+06    1.7185344E+03    1.6184758E+06
    0.80   600.000   -1.436E+02    1.6230870E+06   -1.9953472E+03   -8.2403982E+04    1.6491640E+06    1.9953344E+03    1.6230870E+06
    0.81   600.000   -1.444E+02    1.6262654E+06   -2.3009297E+03   -8.3489294E+04    1.6539745E+06    2.3009175E+03    1.6262655E+06
    0.82   600.000   -1.452E+02    1.6274418E+06   -2.6048751E+03   -8.4449870E+04    1.6567176E+06    2.6048636E+03    1.6274418E+06
    0.83   600.000   -1.461E+02    1.6261373E+06   -2.8824875E+03   -8.5326774E+04    1.6568261E+06    2.8824767E+03    1.6261374E+06
    0.84   600.000   -1.470E+02    1.6220039E+06   -3.1189340E+03   -8.6153040E+04    1.6538914E+06    3.1189240E+03    1.6220040E+06
    0.85   600.000   -1.479E+02    1.6148482E+06   -3.3114620E+03   -8.6951581E+04    1.6476904E+06    3.3114530E+03    1.6148483E+06
    0.86   600.000   -1.488E+02    1.6046392E+06   -3.4690771E+03   -8.7732689E+04    1.6381906E+06    3.4690692E+03    1.6046393E+06
    0.87   600.000   -1.498E+02    1.5914987E+06   -3.6097857E+03   -8.8491674E+04    1.6255355E+06    3.6097789E+03    1.5914988E+06
    0.88   600.000   -1.508E+02    1.5756787E+06   -3.7562077E+03   -8.9207507E+04    1.6100148E+06    3.7562022E+03    1.5756788E+06
    0.89   600.000   -1.518E+02    1.5575287E+06   -3.9307598E+03   -8.9843216E+04    1.5920247E+06    3.9307556E+03    1.5575288E+06
    0.90   600.000   -1.529E+02    1.5374604E+06   -4.1515611E+03   -9.0348405E+04    1.5720246E+06    4.1515585E+03    1.5374605E+06
    0.91   600.000   -1.540E+02    1.5159147E+06   -4.4298120E+03   -9.0663866E+04    1.5504967E+06    4.4298109E+03    1.5159148E+06
    0.92   600.000   -1.551E+02    1.4933368E+06   -4.7688528E+03   -9.0727817E+04    1.5279130E+06    4.7688533E+03    1.4933369E+06
    0.93   600.000   -1.562E+02    1.4701608E+06   -5.1646774E+03   -9.0483065E+04    1.5047130E+06    5.1646794E+03    1.4701609E+06
    0.94   600.000   -1.574E+02    1.4468026E+06   -5.6074547E+03   -8.9884101E+04    1.4812928E+06    5.6074580E+03    1.4468027E+06
    0.95   600.000   -1.586E+02    1.4236575E+06   -6.0835904E+03   -8.8903070E+04    1.4580018E+06    6.0835949E+03    1.4236576E+06
    0.96   600.000   -1.598E+02    1.4010985E+06   -6.5779449E+03   -8.7533651E+04    1.4351454E+06    6.5779504E+03    1.4010985E+06
    0.97   600.000   -1.610E+02    1.3794718E+06   -7.0759133E+03   -8.5792262E+04    1.4129887E+06    7.0759195E+03    1.3794718E+06
    0.98   600.000   -1.622E+02    1.3590897E+06   -7.5651514E+03   -8.3716460E+04    1.3917590E+06    7.5651580E+03    1.3590897E+06
    0.99   600.000   -1.635E+02    1.3402213E+06   -8.0367906E+03   -8.1360919E+04    1.3716461E+06    8.0367972E+03    1.3402213E+06
    1.00   600.000   -1.647E+02    1.3230849E+06   -8.4860487E+03   -7.8791691E+04    1.3528006E+06    8.4860549E+03    1.3230850E+06
    1.01   600.000   -1.659E+02    1.3078438E+06   -8.9122100E+03   -7.6079701E+04    1.3353342E+06    8.9122155E+03    1.3078438E+06
    1.02   600.000   -1.672E+02    1.2946079E+06   -9.3180117E+03   -7.3294524E+04    1.3193215E+06    9.3180161E+03    1.2946080E+06
    1.03   600.000   -1.684E+02    1.2834419E+06   -9.7085164E+03   -7.0499472E+04    1.3048088E+06    9.7085194E+03    1.2834420E+06
    1.04   600.000   -1.696E+02    1.2743782E+06   -1.0089582E+04   -6.7748784E+04    1.2918285E+06    1.0089584E+04    1.2743783E+06
    1.05   600.000   -1.707E+02    1.2674331E+06   -1.0466076E+04   -6.5087299E+04    1.2804169E+06    1.0466076E+04    1.2674331E+06
    1.06   600.000   -1.719E+02    1.2626222E+06   -1.0840031E+04   -6.2552400E+04    1.2706334E+06    1.0840029E+04    1.2626222E+06
    1.07   600.000   -1.730E+02    1.2599722E+06   -1.1209014E+04   -6.0177438E+04    1.2625731E+06    1.1209010E+04    1.2599722E+06
    1.08   600.000   -1.741E+02    1.2595239E+06   -1.1565061E+04   -5.7995438E+04    1.2563698E+06    1.1565056E+04    1.2595239E+06
    1.09   600.000   -1.752E+02    1.2613269E+06   -1.1894485E+04   -5.6041763E+04    1.2521866E+06    1.1894478E+04    1.2613269E+06
    1.10   600.000   -1.762E+02    1.2654248E+06   -1.2178798E+04   -5.4354750E+04    1.2501957E+06    1.2178789E+04    1.2654249E+06
    1.11   600.000   -1.772E+02    1.2718357E+06   -1.2396738E+04   -5.2974021E+04    1.2505512E+06    1.2396728E+04    1.2718357E+06
    1.12   600.000   -1.782E+02    1.2805313E+06   -1.2527146E+04   -5.1936989E+04    1.2533627E+06    1.2527135E+04    1.2805314E+06
    1.13   600.000   -1.792E+02    1.2914212E+06   -1.2552156E+04   -5.1274824E+04    1.2586742E+06    1.2552144E+04    1.2914212E+06
    1.14   600.000   -1.801E+02    1.3043445E+06   -1.2460047E+04   -5.1009198E+04    1.2664518E+06    1.2460034E+04    1.3043445E+06
    1.15   600.000   -1.810E+02    1.3190724E+06   -1.2247094E+04   -5.1150611E+04    1.2765815E+06    1.2247081E+04    1.3190724E+06
    1.16   600.000   -1.819E+02    1.3353197E+06   -1.1917938E+04   -5.1698064E+04    1.2888748E+06    1.1917926E+04    1.3353197E+06
    1.17   600.000   -1.828E+02    1.3527646E+06   -1.1484369E+04   -5.2638978E+04    1.3030793E+06    1.1484356E+04    1.3527646E+06
    1.18   600.000   -1.836E+02    1.3710714E+06   -1.0962820E+04   -5.3948009E+04    1.3188909E+06    1.0962808E+04    1.3710714E+06
    1.19   600.000   -1.845E+02    1.3899141E+06   -1.0371309E+04   -5.5584059E+04    1.3359678E+06    1.0371297E+04    1.3899141E+06
    1.20   600.000   -1.853E+02    1.4089966E+06   -9.7266974E+03   -5.7485958E+04    1.3539431E+06    9.7266872E+03    1.4089966E+06
    1.21   600.000   -1.861E+02    1.4280695E+06   -9.0430887E+03   -5.9568389E+04    1.3724398E+06    9.0430798E+03    1.4280695E+06
    1.22   600.000   -1.869E+02    1.4469424E+06   -8.3317439E+03   -6.1720099E+04    1.3910878E+06    8.3317365E+03    1.4469424E+06
    1.23   600.000   -1.877E+02    1.4654950E+06   -7.6024010E+03   -6.3806058E+04    1.4095451E+06    7.6023953E+03    1.4654950E+06
    1.24   600.000   -1.885E+02    1.4836878E+06   -6.8653938E+03   -6.5674166E+04    1.4275239E+06    6.8653900E+03    1.4836878E+06
    1.25   600.000   -1.893E+02    1.5015737E+06   -6.1337635E+03   -6.7165937E+04    1.4448220E+06    6.1337618E+03    1.5015737E+06
    1.26   600.000   -1.900E+02    1.5193093E+06   -5.4246265E+03   -6.8129633E+04    1.4613548E+06    5.4246271E+03    1.5193092E+06
    1.27   600.000   -1.908E+02    1.5371622E+06   -4.7593579E+03   -6.8433929E+04    1.4771865E+06    4.7593609E+03    1.5371621E+06
    1.28   600.000   -1.916E+02    1.5555108E+06   -4.1625115E+03   -6.7980297E+04    1.4925499E+06    4.1625169E+03    1.5555108E+06
    1.29   600.000   -1.923E+02    1.5748315E+06   -3.6596960E+03   -6.6712617E+04    1.5078520E+06    3.6597040E+03    1.5748315E+06
    1.30   600.000   -1.931E+02    1.5956721E+06   -3.2747957E+03   -6.4622878E+04    1.5236577E+06    3.2748061E+03    1.5956721E+06
    1.31   600.000   -1.939E+02    1.6186141E+06   -3.0269558E+03   -6.1752170E+04    1.5406539E+06    3.0269687E+03    1.6186141E+06
    1.32   600.000   -1.946E+02    1.6442266E+06   -2.9277096E+03   -5.8186515E+04    1.5595949E+06    2.9277249E+03    1.6442265E+06
    1.33   600.000   -1.954E+02    1.6730210E+06   -2.9785658E+03   -5.4047732E+04    1.5812403E+06    2.9785835E+03    1.6730209E+06
    1.34   600.000   -1.962E+02    1.7054113E+06   -3.1693619E+03   -4.9480438E+04    1.6062912E+06    3.1693821E+03    1.7054112E+06
    1.35   600.000   -1.969E+02    1.7416862E+06   -3.4777221E+03   -4.4637229E+04    1.6353365E+06    3.4777448E+03    1.7416861E+06
    1.36   600.000   -1.977E+02    1.7819959E+06   -3.8699577E+03   -3.9664724E+04    1.6688136E+06    3.8699829E+03    1.7819958E+06
    1.37   600.000   -1.985E+02    1.8263533E+06   -4.3036243E+03   -3.4693125E+04    1.7069886E+06    4.3036522E+03    1.8263532E+06
    1.38   600.000   -1.993E+02    1.8746477E+06   -4.7316365E+03   -2.9831075E+04    1.7499529E+06    4.7316670E+03    1.8746477E+06
    1.39   600.000   -2.001E+02    1.9266672E+06   -5.1074060E+03   -2.5166247E+04    1.7976347E+06    5.1074392E+03    1.9266671E+06
    1.40   600.000   -2.009E+02    1.9821245E+06   -5.3900940E+03   -2.0770441E+04    1.8498204E+06    5.3901300E+03    1.9821244E+06
    1.41   600.000   -2.017E+02    2.0406834E+06   -5.5489374E+03   -1.6706743E+04    1.9061797E+06    5.5489762E+03    2.0406833E+06
    1.42   600.000   -2.025E+02    2.1019834E+06   -5.5658182E+03   -1.3035700E+04    1.9662954E+06    5.5658596E+03    2.1019833E+06
    1.43   600.000   -2.033E+02    2.1656619E+06   -5.4357114E+03   -9.8177930E+03    2.0296954E+06    5.4357552E+03    2.1656619E+06
    1.44   600.000   -2.041E+02    2.2313768E+06   -5.1651650E+03   -7.1106889E+03    2.0958908E+06    5.1652110E+03    2.2313768E+06
    1.45   600.000   -2.049E+02    2.2988288E+06   -4.7693529E+03   -4.9614160E+03    2.1644206E+06    4.7694007E+03    2.2988288E+06
    1.46   600.000   -2.057E+02    2.3677851E+06   -4.2684017E+03   -3.3954068E+03    2.2349006E+06    4.2684509E+03    2.3677851E+06
    1.47   600.000   -2.065E+02    2.4380999E+06   -3.6836672E+03   -2.4057333E+03    2.3070714E+06    3.6837173E+03    2.4380998E+06
    1.48   600.000   -2.074E+02    2.5097282E+06   -3.0344874E+03   -1.9464542E+03    2.3808374E+06    3.0345379E+03    2.5097282E+06
    1.49   600.000   -2.082E+02    2.5827304E+06   -2.3357482E+03   -1.9335104E+03    2.4562845E+06    2.3357987E+03    2.5827303E+06
    1.50   600.000   -2.091E+02    2.6572633E+06   -1.5964190E+03   -2.2549864E+03    2.5336720E+06    1.5964690E+03    2.6572632E+06
    1.51   600.000   -2.099E+02    2.7335599E+06   -8.1909939E+02   -2.7900324E+03    2.6133912E+06    8.1914856E+02    2.7335598E+06
    1.52   600.000   -2.107E+02    2.8118985E+06   -5.9795549E-01   -3.4329012E+03    2.6958958E+06    6.4596600E-01    2.8118985E+06
    1.53   600.000   -2.116E+02    2.8925649E+06    8.6638932E+02   -4.1162110E+03    2.7816096E+06   -8.6634274E+02    2.8925648E+06
    1.54   600.000   -2.125E+02    2.9758099E+06    1.7904105E+03   -4.8265766E+03    2.8708264E+06   -1.7903656E+03    2.9758099E+06
    1.55   600.000   -2.133E+02    3.0618075E+06    2.7772441E+03   -5.6068030E+03    2.9636189E+06   -2.7772010E+03    3.0618074E+06
    1.56   600.000   -2.142E+02    3.1506146E+06    3.8251484E+03   -6.5420555E+03    3.0597750E+06   -3.8251074E+03    3.1506145E+06
    1.57   600.000   -2.150E+02    3.2421385E+06    4.9203057E+03   -7.7321547E+03    3.1587765E+06   -4.9202670E+03    3.2421384E+06
    1.58   600.000   -2.159E+02    3.3361135E+06    6.0338362E+03   -9.2569510E+03    3.2598281E+06   -6.0338000E+03    3.3361135E+06
    1.59   600.000   -2.167E+02    3.4320910E+06    7.1218190E+03   -1.1144753E+04    3.3619347E+06   -7.1217855E+03    3.4320910E+06
    1.60   600.000   -2.176E+02    3.5294451E+06    8.1292193E+03   -1.3353538E+04    3.4640143E+06   -8.1291887E+03    3.5294451E+06
    1.61   600.000   -2.184E+02    3.6273964E+06    8.9975517E+03   -1.5770917E+04    3.5650259E+06   -8.9975242E+03    3.6273964E+06
    1.62   600.000   -2.193E+02    3.7250529E+06    9.6748533E+03   -1.8232824E+04    3.6640886E+06   -9.6748291E+03    3.7250529E+06
    1.63   600.000   -2.201E+02    3.8214673E+06    1.0125612E+04   -2.0554910E+04    3.7605710E+06   -1.0125592E+04    3.8214672E+06
    1.64   600.000   -2.209E+02    3.9157063E+06    1.0338087E+04   -2.2567001E+04    3.8541391E+06   -1.0338070E+04    3.9157062E+06
    1.65   600.000   -2.217E+02    4.0069272E+06    1.0327072E+04   -2.4140843E+04    3.9447626E+06   -1.0327058E+04    4.0069271E+06
    1.66   600.000   -2.226E+02    4.0944548E+06    1.0131341E+04   -2.5204601E+04    4.0326877E+06   -1.0131331E+04    4.0944547E+06
    1.67   600.000   -2.234E+02    4.1778503E+06    9.8063720E+03   -2.5742435E+04    4.1183894E+06   -9.8063663E+03    4.1778502E+06
    1.68   600.000   -2.242E+02    4.2569643E+06    9.4140125E+03   -2.5782058E+04    4.2025136E+06   -9.4140105E+03    4.2569642E+06
    1.69   600.000   -2.250E+02    4.3319630E+06    9.0113943E+03   -2.5375738E+04    4.2858123E+06   -9.0113959E+03    4.3319629E+06
    1.70   600.000   -2.258E+02    4.4033202E+06    8.6414783E+03   -2.4580376E+04    4.3690690E+06   -8.6414834E+03    4.4033201E+06
    1.71   600.000   -2.266E+02    4.4717685E+06    8.3271537E+03   -2.3440643E+04    4.4530091E+06   -8.3271622E+03    4.4717685E+06
    1.72   600.000   -2.274E+02    4.5382123E+06    8.0699404E+03   -2.1977132E+04    4.5381961E+06   -8.0699520E+03    4.5382123E+06
    1.73   600.000   -2.282E+02    4.6036114E+06    7.8532029E+03   -2.0180155E+04    4.6249181E+06   -7.8532175E+03    4.6036114E+06
    1.74   600.000   -2.289E+02    4.6688543E+06    7.6486985E+03   -1.8009508E+04    4.7130868E+06   -7.6487159E+03    4.6688543E+06
    1.75   600.000   -2.297E+02    4.7346431E+06    7.4245904E+03   -1.5400836E+04    4.8021700E+06   -7.4246103E+03    4.7346431E+06
    1.76   600.000   -2.305E+02    4.8014116E+06    7.1529758E+03   -1.2279111E+04    4.8911837E+06   -7.1529979E+03    4.8014117E+06
    1.77   600.000   -2.313E+02    4.8692882E+06    6.8154779E+03   -8.5787632E+03    4.9787573E+06   -6.8155018E+03    4.8692883E+06
    1.78   600.000   -2.320E+02    4.9381042E+06    6.4062340E+03   -4.2680459E+03    5.0632720E+06   -6.4062592E+03    4.9381042E+06
    1.79   600.000   -2.328E+02    5.0074361E+06    5.9323173E+03    6.2692054E+02    5.1430520E+06   -5.9323435E+03    5.0074362E+06
    1.80   600.000   -2.336E+02    5.0766651E+06    5.4120182E+03    6.0045763E+03    5.2165767E+06   -5.4120448E+03    5.0766652E+06
    1.81   600.000   -2.343E+02    5.1450359E+06    4.8714848E+03    1.1683069E+04    5.2826732E+06   -4.8715113E+03    5.1450360E+06
    1.82   600.000   -2.351E+02    5.2117092E+06    4.3401673E+03    1.7412542E+04    5.3406556E+06   -4.3401933E+03    5.2117092E+06
    1.83   600.000   -2.359E+02    5.2758085E+06    3.8455187E+03    2.2905229E+04    5.3903916E+06   -3.8455440E+03    5.2758086E+06
    1.84   600.000   -2.366E+02    5.3364719E+06    3.4075597E+03    2.7879070E+04    5.4322988E+06   -3.4075840E+03    5.3364720E+06
    1.85   600.000   -2.374E+02    5.3929170E+06    3.0341477E+03    3.2105943E+04    5.4672856E+06   -3.0341708E+03    5.3929170E+06
    1.86   600.000   -2.381E+02    5.4445228E+06    2.7179604E+03    3.5453010E+04    5.4966649E+06   -2.7179822E+03    5.4445229E+06
    1.87   600.000   -2.389E+02    5.4909223E+06    2.4361445E+03    3.7906481E+04    5.5220604E+06   -2.4361649E+03    5.4909223E+06
    1.88   600.000   -2.396E+02    5.5320881E+06    2.1532095E+03    3.9571321E+04    5.5453153E+06   -2.1532283E+03    5.5320881E+06
    1.89   600.000   -2.404E+02    5.5683938E+06    1.8270824E+03    4.0646799E+04    5.5683996E+06   -1.8270993E+03    5.5683939E+06
    1.90   600.000   -2.411E+02    5.6006321E+06    1.4174566E+03    4.1384256E+04    5.5933055E+06   -1.4174714E+03    5.6006321E+06
    1.91   600.000   -2.418E+02    5.6299789E+06    8.9490833E+02    4.2037911E+04    5.6219212E+06   -8.9492071E+02    5.6299790E+06
    1.92   600.000   -2.426E+02    5.6579056E+06    2.4892688E+02    4.2820774E+04    5.6558870E+06   -2.4893647E+02    5.6579056E+06
    1.93   600.000   -2.433E+02    5.6860459E+06   -5.0693078E+02    4.3875594E+04    5.6964505E+06    5.0692431E+02    5.6860460E+06
    1.94   600.000   -2.440E+02    5.7160364E+06   -1.3341756E+03    4.5266145E+04    5.7443470E+06    1.3341725E+03    5.7160365E+06
    1.95   600.000   -2.447E+02    5.7493498E+06   -2.1736044E+03    4.6988426E+04    5.7997325E+06    2.1736047E+03    5.7493498E+06
    1.96   600.000   -2.454E+02    5.7871417E+06   -2.9545066E+03    4.8996061E+04    5.8621865E+06    2.9545104E+03    5.7871418E+06
    1.97   600.000   -2.461E+02    5.8301289E+06   -3.6075861E+03    5.1230740E+04    5.9307849E+06    3.6075931E+03    5.8301289E+06
    1.98   600.000   -2.468E+02    5.8785076E+06   -4.0790127E+03    5.3647696E+04    6.0042249E+06    4.0790225E+03    5.8785077E+06
    1.99   600.000   -2.475E+02    5.9319215E+06   -4.3420570E+03    5.6228211E+04    6.0809739E+06    4.3420691E+03    5.9319216E+06
    2.00   600.000   -2.481E+02    5.9894750E+06   -4.4027704E+03    5.8975296E+04    6.1594116E+06    4.4027844E+03    5.9894750E+06
    2.01   600.000   -2.488E+02    6.0497922E+06   -4.2975282E+03    6.1893786E+04    6.2379385E+06    4.2975433E+03    6.0497923E+06
    2.02   600.000   -2.495E+02    6.1111137E+06   -4.0827025E+03    6.4960654E+04    6.3150410E+06    4.0827181E+03    6.1111137E+06
    2.03   600.000   -2.501E+02    6.1714227E+06   -3.8193955E+03    6.8094259E+04    6.3893112E+06    3.8194110E+03    6.1714228E+06
    2.04   600.000   -2.508E+02    6.2285923E+06   -3.5578926E+03    7.1131744E+04    6.4594348E+06    3.5579076E+03    6.2285924E+06
    2.05   600.000   -2.515E+02    6.2805383E+06   -3.3265072E+03    7.3822001E+04    6.5241644E+06    3.3265214E+03    6.2805384E+06
    2.06   600.000   -2.521E+02    6.3253671E+06   -3.1277793E+03    7.5838001E+04    6.5822959E+06    3.1277927E+03    6.3253671E+06
    2.07   600.000   -2.527E+02    6.3615011E+06   -2.9423523E+03    7.6807922E+04    6.6326604E+06    2.9423650E+03    6.3615012E+06
    2.08   600.000   -2.534E+02    6.3877725E+06   -2.7384115E+03    7.6360400E+04    6.6741380E+06    2.7384236E+03    6.3877726E+06
    2.09   600.000   -2.540E+02    6.4034741E+06   -2.4832367E+03    7.4176218E+04    6.7056882E+06    2.4832487E+03    6.4034742E+06
    2.10   600.000   -2.547E+02    6.4083662E+06   -2.1534632E+03    7.0037337E+04    6.7263899E+06    2.1534754E+03    6.4083663E+06
    2.11   600.000   -2.553E+02    6.4026384E+06   -1.7417235E+03    6.3864400E+04    6.7354809E+06    1.7417363E+03    6.4026384E+06
    2.12   600.000   -2.559E+02    6.3868359E+06   -1.2588129E+03    5.5735698E+04    6.7323901E+06    1.2588266E+03    6.3868359E+06
    2.13   600.000   -2.565E+02    6.3617615E+06   -7.3177693E+02    4.5883806E+04    6.7167620E+06    7.3179186E+02    6.3617615E+06
    2.14   600.000   -2.571E+02    6.3283706E+06   -1.9904488E+02    3.4670349E+04    6.6884753E+06    1.9906112E+02    6.3283706E+06
    2.15   600.000   -2.578E+02    6.2876760E+06    2.9607093E+02    2.2543729E+04    6.6476579E+06   -2.9605334E+02    6.2876760E+06
    2.16   600.000   -2.584E+02    6.2406774E+06    7.1229853E+02    9.9881764E+03    6.5946987E+06   -7.1227957E+02    6.2406774E+06
    2.17   600.000   -2.590E+02    6.1883225E+06    1.0167003E+03   -2.5259873E+03    6.5302545E+06   -1.0166800E+03    6.1883225E+06
    2.18   600.000   -2.595E+02    6.1315024E+06    1.1893900E+03   -1.4581988E+04    6.4552480E+06   -1.1893683E+03    6.1315024E+06
    2.19   600.000   -2.601E+02    6.0710742E+06    1.2258754E+03   -2.5840526E+04    6.3708567E+06   -1.2258523E+03    6.0710742E+06
    2.20   600.000   -2.607E+02    6.0079025E+06    1.1366024E+03   -3.6046926E+04    6.2784957E+06   -1.1365778E+03    6.0079025E+06
    2.21   600.000   -2.613E+02    5.9429086E+06    9.4391598E+02   -4.5024643E+04    6.1798018E+06   -9.4388970E+02    5.9429086E+06
    2.22   600.000   -2.618E+02    5.8771153E+06    6.7737502E+02   -5.2660777E+04    6.0766221E+06   -6.7734695E+02    5.8771153E+06
    2.23   600.000   -2.624E+02    5.8116769E+06    3.6884693E+02   -5.8889361E+04    5.9710063E+06   -3.6881694E+02    5.8116769E+06
    2.24   600.000   -2.629E+02    5.7478825E+06    4.8798170E+01   -6.3676291E+04    5.8651921E+06   -4.8766188E+01    5.7478825E+06
    2.25   600.000   -2.635E+02    5.6871259E+06   -2.5534248E+02   -6.7007203E+04    5.7615677E+06    2.5537646E+02    5.6871258E+06
    2.26   600.000   -2.640E+02    5.6308384E+06   -5.1874495E+02   -6.8877702E+04    5.6625961E+06    5.1878086E+02    5.6308384E+06
    2.27   600.000   -2.645E+02    5.5803916E+06   -7.1751687E+02   -6.9285106E+04    5.5706947E+06    7.1755458E+02    5.5803916E+06
    2.28   600.000   -2.650E+02    5.5369819E+06   -8.2716292E+02   -6.8222038E+04    5.4880797E+06    8.2720223E+02    5.5369819E+06
    2.29   600.000   -2.655E+02    5.5015173E+06   -8.2241520E+02   -6.5673949E+04    5.4165949E+06    8.2245583E+02    5.5015173E+06
    2.30   600.000   -2.660E+02    5.4745248E+06   -6.7903236E+02   -6.1623557E+04    5.3575549E+06    6.7907402E+02    5.4745248E+06
    2.31   600.000   -2.665E+02    5.4560912E+06   -3.7722061E+02   -5.6064426E+04    5.3116251E+06    3.7726298E+02    5.4560912E+06
    2.32   600.000   -2.670E+02    5.4458409E+06    9.4477707E+01   -4.9023207E+04    5.2787544E+06   -9.4434970E+01    5.4458409E+06
    2.33   600.000   -2.675E+02    5.4429438E+06    7.3624754E+02   -4.0586533E+04    5.2581622E+06   -7.3620475E+02    5.4429437E+06
    2.34   600.000   -2.680E+02    5.4461434E+06    1.5360084E+03   -3.0925608E+04    5.2483741E+06   -1.5359659E+03    5.4461434E+06
    2.35   600.000   -2.685E+02    5.4538012E+06    2.4704639E+03   -2.0310663E+04    5.2472981E+06   -2.4704219E+03    5.4538012E+06
    2.36   600.000   -2.690E+02    5.4639567E+06    3.5074435E+03   -9.1092154E+03    5.2523381E+06   -3.5074022E+03    5.4639567E+06
    2.37   600.000   -2.695E+02    5.4744131E+06    4.6084746E+03    2.2342453E+03    5.2605447E+06   -4.6084343E+03    5.4744131E+06
    2.38   600.000   -2.700E+02    5.4828591E+06    5.7308921E+03    1.3235148E+04    5.2688062E+06   -5.7308531E+03    5.4828592E+06
    2.39   600.000   -2.705E+02    5.4870285E+06    6.8295533E+03    2.3416871E+04    5.2740751E+06   -6.8295157E+03    5.4870285E+06
    2.40   600.000   -2.710E+02    5.4848894E+06    7.8588585E+03    3.2362657E+04    5.2736171E+06   -7.8588226E+03    5.4848894E+06
    2.41   600.000   -2.714E+02    5.4748421E+06    8.7758717E+03    3.9763915E+04    5.2652543E+06   -8.7758376E+03    5.4748422E+06
    2.42   600.000   -2.719E+02    5.4558949E+06    9.5448411E+03    4.5458043E+04    5.2475684E+06   -9.5448091E+03    5.4558950E+06
    2.43   600.000   -2.724E+02    5.4277876E+06    1.0142637E+04    4.9449599E+04    5.2200303E+06   -1.0142607E+04    5.4277877E+06
    2.44   600.000   -2.729E+02    5.3910414E+06    1.0563965E+04    5.1909610E+04    5.1830371E+06   -1.0563937E+04    5.3910414E+06
    2.45   600.000   -2.734E+02    5.3469249E+06    1.0824991E+04    5.3149770E+04    5.1378528E+06   -1.0824966E+04    5.3469249E+06
    2.46   600.000   -2.738E+02    5.2973436E+06    1.0964270E+04    5.3572126E+04    5.0864697E+06   -1.0964247E+04    5.2973437E+06
    2.47   600.000   -2.743E+02    5.2446687E+06    1.1040399E+04    5.3600421E+04    5.0314154E+06   -1.1040379E+04    5.2446687E+06
    2.48   600.000   -2.748E+02    5.1915268E+06    1.1126480E+04    5.3604995E+04    4.9755316E+06   -1.1126462E+04    5.1915268E+06
    2.49   600.000   -2.752E+02    5.1405745E+06    1.1301981E+04    5.3836752E+04    4.9217460E+06   -1.1301965E+04    5.1405745E+06
    2.50   600.000   -2.757E+02    5.0942766E+06    1.1643027E+04    5.4385333E+04    4.8728530E+06   -1.1643013E+04    5.0942767E+06
    2.51   600.000   -2.762E+02    5.0547099E+06    1.2212364E+04    5.5171918E+04    4.8313164E+06   -1.2212351E+04    5.0547100E+06
    2.52   600.000   -2.767E+02    5.0234125E+06    1.3050285E+04    5.5979198E+04    4.7991094E+06   -1.3050273E+04    5.0234125E+06
    2.53   600.000   -2.771E+02    5.0013014E+06    1.4167690E+04    5.6512280E+04    4.7776107E+06   -1.4167679E+04    5.0013015E+06
    2.54   600.000   -2.776E+02    4.9886746E+06    1.5542214E+04    5.6476859E+04    4.7675756E+06   -1.5542203E+04    4.9886746E+06
    2.55   600.000   -2.780E+02    4.9852999E+06    1.7118112E+04    5.5656741E+04    4.7691922E+06   -1.7118102E+04    4.9853000E+06
    2.56   600.000   -2.785E+02    4.9905804E+06    1.8810323E+04    5.3972774E+04    4.7822206E+06   -1.8810313E+04    4.9905805E+06
    2.57   600.000   -2.789E+02    5.0037629E+06    2.0512733E+04    5.1509519E+04    4.8061902E+06   -2.0512723E+04    5.0037629E+06
    2.58   600.000   -2.794E+02    5.0241472E+06    2.2110134E+04    4.8503775E+04    4.8406139E+06   -2.2110124E+04    5.0241472E+06
    2.59   600.000   -2.798E+02    5.0512516E+06    2.3492643E+04    4.5298522E+04    4.8851691E+06   -2.3492633E+04    5.0512516E+06
    2.60   600.000   -2.803E+02    5.0848972E+06    2.4570608E+04    4.2274270E+04    4.9397980E+06   -2.4570599E+04    5.0848972E+06
    2.61   600.000   -2.807E+02    5.1251952E+06    2.5287570E+04    3.9774927E+04    5.0047022E+06   -2.5287561E+04    5.1251952E+06
    2.62   600.000   -2.812E+02    5.1724430E+06    2.5628804E+04    3.8045413E+04    5.0802289E+06   -2.5628796E+04    5.1724431E+06
    2.63   600.000   -2.816E+02    5.2269559E+06    2.5623641E+04    3.7193738E+04    5.1666784E+06   -2.5623634E+04    5.2269559E+06
    2.64   600.000   -2.821E+02    5.2888760E+06    2.5340920E+04    3.7182773E+04    5.2640742E+06   -2.5340913E+04    5.2888760E+06
    2.65   600.000   -2.825E+02    5.3580023E+06    2.4878464E+04    3.7849124E+04    5.3719457E+06   -2.4878458E+04    5.3580023E+06
    2.66   600.000   -2.830E+02    5.4336755E+06    2.4348795E+04    3.8940737E+04    5.4891616E+06   -2.4348790E+04    5.4336755E+06
    2.67   600.000   -2.834E+02    5.5147313E+06    2.3864006E+04    4.0162351E+04    5.6138335E+06   -2.3864001E+04    5.5147313E+06
    2.68   600.000   -2.839E+02    5.5995136E+06    2.3522509E+04    4.1218657E+04    5.7432934E+06   -2.3522505E+04    5.5995136E+06
    2.69   600.000   -2.843E+02    5.6859256E+06    2.3399495E+04    4.1847983E+04    5.8741327E+06   -2.3399492E+04    5.6859256E+06
    2.70   600.000   -2.848E+02    5.7714884E+06    2.3541629E+04    4.1843211E+04    6.0022902E+06   -2.3541627E+04    5.7714884E+06
    2.71   600.000   -2.853E+02    5.8533948E+06    2.3965482E+04    4.1060268E+04    6.1231798E+06   -2.3965481E+04    5.8533948E+06
    2.72   600.000   -2.857E+02    5.9285568E+06    2.4658614E+04    3.9417091E+04    6.2318615E+06   -2.4658614E+04    5.9285569E+06
    2.73   600.000   -2.862E+02    5.9936689E+06    2.5582272E+04    3.6887106E+04    6.3232644E+06   -2.5582273E+04    5.9936689E+06
    2.74   600.000   -2.867E+02    6.0453093E+06    2.6675067E+04    3.3491004E+04    6.3924689E+06   -2.6675070E+04    6.0453093E+06
    2.75   600.000   -2.872E+02    6.0801003E+06    2.7857460E+04    2.9289344E+04    6.4350391E+06   -2.7857464E+04    6.0801003E+06
    2.76   600.000   -2.877E+02    6.0949268E+06    2.9037186E+04    2.4376887E+04    6.4473799E+06   -2.9037191E+04    6.0949268E+06
    2.77   600.000   -2.881E+02    6.0871960E+06    3.0115759E+04    1.8877978E+04    6.4270733E+06   -3.0115765E+04    6.0871960E+06
    2.78   600.000   -2.886E+02    6.0551016E+06    3.0995934E+04    1.2941310E+04    6.3731425E+06   -3.0995941E+04    6.0551016E+06
    2.79   600.000   -2.891E+02    5.9978500E+06    3.1589626E+04    6.7322418E+03    6.2861956E+06   -3.1589633E+04    5.9978500E+06
    2.80   600.000   -2.896E+02    5.9158058E+06    3.1825467E+04    4.2171456E+02    6.1684182E+06   -3.1825475E+04    5.9158058E+06
    2.81   600.000   -2.901E+02    5.8105260E+06    3.1654999E+04   -5.8275536E+03    6.0234081E+06   -3.1655008E+04    5.8105260E+06
    2.82   600.000   -2.906E+02    5.6846711E+06    3.1056554E+04   -1.1875195E+04    5.8558715E+06   -3.1056563E+04    5.6846711E+06
    2.83   600.000   -2.911E+02    5.5418030E+06    3.0036212E+04   -1.7614254E+04    5.6712224E+06   -3.0036221E+04    5.5418030E+06
    2.84   600.000   -2.916E+02    5.3860985E+06    2.8625806E+04   -2.2976206E+04    5.4751444E+06   -2.8625815E+04    5.3860985E+06
    2.85   600.000   -2.920E+02    5.2220235E+06    2.6878531E+04   -2.7928732E+04    5.2731774E+06   -2.6878540E+04    5.2220235E+06
    2.86   600.000   -2.925E+02    5.0540152E+06    2.4863271E+04   -3.2467397E+04    5.0703858E+06   -2.4863279E+04    5.0540152E+06
    2.87   600.000   -2.930E+02    4.8862137E+06    2.2658789E+04   -3.6604253E+04    4.8711436E+06   -2.2658797E+04    4.8862137E+06
    2.88   600.000   -2.935E+02    4.7222730E+06    2.0348624E+04   -4.0356840E+04    4.6790483E+06   -2.0348633E+04    4.7222730E+06
    2.89   600.000   -2.939E+02    4.5652599E+06    1.8016793E+04   -4.3740012E+04    4.4969465E+06   -1.8016801E+04    4.5652599E+06
    2.90   600.000   -2.944E+02    4.4176363E+06    1.5743771E+04   -4.6761091E+04    4.3270351E+06   -1.5743779E+04    4.4176363E+06
    2.91   600.000   -2.949E+02    4.2813070E+06    1.3601996E+04   -4.9417045E+04    4.1709953E+06   -1.3602005E+04    4.2813070E+06
    2.92   600.000   -2.954E+02    4.1577064E+06    1.1650524E+04   -5.1691652E+04    4.0301181E+06   -1.1650533E+04    4.1577064E+06
    2.93   600.000   -2.959E+02    4.0478997E+06    9.9292954E+03   -5.3551240E+04    3.9053939E+06   -9.9293041E+03    4.0478998E+06
    2.94   600.000   -2.964E+02    3.9526740E+06    8.4543985E+03   -5.4939338E+04    3.7975564E+06   -8.4544075E+03    3.9526740E+06
    2.95   600.000   -2.968E+02    3.8726040E+06    7.2160930E+03   -5.5772545E+04    3.7070857E+06   -7.2161022E+03    3.8726041E+06
    2.96   600.000   -2.973E+02    3.8080847E+06    6.1809662E+03   -5.5941189E+04    3.6341883E+06   -6.1809757E+03    3.8080848E+06
    2.97   600.000   -2.978E+02    3.7593315E+06    5.2984684E+03   -5.5318046E+04    3.5787702E+06   -5.2984782E+03    3.7593315E+06
    2.98   600.000   -2.983E+02    3.7263596E+06    4.5106548E+03   -5.3776309E+04    3.5404227E+06   -4.5106650E+03    3.7263596E+06
    2.99   600.000   -2.988E+02    3.7089577E+06    3.7628885E+03   -5.1214778E+04    3.5184268E+06   -3.7628991E+03    3.7089577E+06
    3.00   600.000   -2.993E+02    3.7066731E+06    3.0129660E+03   -4.7585107E+04    3.5117826E+06   -3.0129770E+03    3.7066731E+06
    3.01   600.000   -2.998E+02    3.7188208E+06    2.2366943E+03   -4.2914281E+04    3.5192623E+06   -2.2367057E+03    3.7188209E+06
    3.02   600.000   -3.003E+02    3.7445196E+06    1.4291098E+03   -3.7316138E+04    3.5394821E+06   -1.4291218E+03    3.7445196E+06
    3.03   600.000   -3.008E+02    3.7827496E+06    6.0183248E+02   -3.0988430E+04    3.5709893E+06   -6.0184506E+02    3.7827496E+06
    3.04   600.000   -3.013E+02    3.8324172E+06   -2.2194450E+02   -2.4195502E+04    3.6123521E+06    2.2193126E+02    3.8324172E+06
    3.05   600.000   -3.018E+02    3.8924097E+06   -1.0129163E+03   -1.7239821E+04    3.6622394E+06    1.0129024E+03    3.8924097E+06
    3.06   600.000   -3.023E+02    3.9616253E+06   -1.7399444E+03   -1.0427370E+04    3.7194740E+06    1.7399298E+03    3.9616253E+06
    3.07   600.000   -3.028E+02    4.0389689E+06   -2.3723504E+03   -4.0322212E+03    3.7830443E+06    2.3723352E+03    4.0389689E+06
    3.08   600.000   -3.033E+02    4.1233154E+06   -2.8804804E+03    1.7350660E+03    3.8520686E+06    2.8804647E+03    4.1233154E+06
    3.09   600.000   -3.038E+02    4.2134493E+06   -3.2356517E+03    6.7515706E+03    3.9257171E+06    3.2356355E+03    4.2134493E+06
    3.10   600.000   -3.043E+02    4.3079983E+06   -3.4108973E+03    1.0995894E+04    4.0031095E+06    3.4108810E+03    4.3079984E+06
    3.11   600.000   -3.049E+02    4.4053837E+06   -3.3835261E+03    1.4549885E+04    4.0832147E+06    3.3835096E+03    4.4053837E+06
    3.12   600.000   -3.054E+02    4.5038077E+06   -3.1395444E+03    1.7587306E+04    4.1647840E+06    3.1395279E+03    4.5038077E+06
    3.13   600.000   -3.059E+02    4.6012969E+06   -2.6788410E+03    2.0349978E+04    4.2463406E+06    2.6788246E+03    4.6012969E+06
    3.14   600.000   -3.064E+02    4.6958051E+06   -2.0192294E+03    2.3113635E+04    4.3262379E+06    2.0192130E+03    4.6958051E+06
    3.15   600.000   -3.069E+02    4.7853672E+06   -1.1974486E+03    2.6147537E+04    4.4027797E+06    1.1974323E+03    4.7853673E+06
    3.16   600.000   -3.074E+02    4.8682783E+06   -2.6614394E+02    2.9673198E+04    4.4743766E+06    2.6612746E+02    4.8682783E+06
    3.17   600.000   -3.079E+02    4.9432591E+06    7.1265069E+02    3.3828288E+04    4.5397060E+06   -7.1266747E+02    4.9432591E+06
    3.18   600.000   -3.084E+02    5.0095707E+06    1.6756407E+03    3.8641337E+04    4.5978358E+06   -1.6756580E+03    5.0095707E+06
    3.19   600.000   -3.089E+02    5.0670463E+06    2.5655940E+03    4.4021360E+04    4.6482879E+06   -2.5656122E+03    5.0670464E+06
    3.20   600.000   -3.094E+02    5.1160321E+06    3.3360238E+03    4.9764104E+04    4.6910303E+06   -3.3360430E+03    5.1160321E+06
    3.21   600.000   -3.099E+02    5.1572486E+06    3.9527498E+03    5.5573620E+04    4.7264064E+06   -3.9527704E+03    5.1572486E+06
    3.22   600.000   -3.104E+02    5.1916052E+06    4.3932358E+03    6.1095331E+04    4.7550223E+06   -4.3932579E+03    5.1916052E+06
    3.23   600.000   -3.109E+02    5.2200060E+06    4.6452842E+03    6.5955227E+04    4.7776152E+06   -4.6453079E+03    5.2200060E+06
    3.24   600.000   -3.114E+02    5.2431840E+06    4.7063837E+03    6.9799804E+04    4.7949281E+06   -4.7064091E+03    5.2431840E+06
    3.25   600.000   -3.118E+02    5.2615905E+06    4.5840259E+03    7.2332425E+04    4.8076053E+06   -4.5840529E+03    5.2615905E+06
    3.26   600.000   -3.123E+02    5.2753534E+06    4.2962333E+03    7.3343114E+04    4.8161260E+06   -4.2962617E+03    5.2753534E+06
    3.27   600.000   -3.128E+02    5.2843075E+06    3.8709731E+03    7.2729615E+04    4.8207836E+06   -3.8710027E+03    5.2843075E+06
    3.28   600.000   -3.132E+02    5.2880912E+06    3.3433523E+03    7.0507755E+04    4.8217212E+06   -3.3433826E+03    5.2880912E+06
    3.29   600.000   -3.136E+02    5.2862923E+06    2.7503867E+03    6.6809243E+04    4.8190158E+06   -2.7504175E+03    5.2862923E+06
    3.30   600.000   -3.141E+02    5.2786179E+06    2.1242979E+03    6.1865975E+04    4.8127993E+06   -2.1243287E+03    5.2786179E+06
    3.31   600.000   -3.145E+02    5.2650533E+06    1.4861638E+03    5.5981845E+04    4.8033851E+06   -1.4861942E+03    5.2650533E+06
    3.32   600.000   -3.149E+02    5.2459728E+06    8.4195464E+02    4.9495600E+04    4.7913659E+06   -8.4198428E+02    5.2459728E+06
    3.33   600.000   -3.154E+02    5.2221740E+06    1.8238328E+02    4.2740197E+04    4.7776511E+06   -1.8241180E+02    5.2221740E+06
    3.34   600.000   -3.158E+02    5.1948225E+06   -5.1318215E+02    3.6004716E+04    4.7634283E+06    5.1315503E+02    5.1948225E+06
    3.35   600.000   -3.162E+02    5.1653193E+06   -1.2698226E+03    2.9503878E+04    4.7500489E+06    1.2697971E+03    5.1653193E+06
    3.36   600.000   -3.166E+02    5.1351216E+06   -2.1092538E+03    2.3358490E+04    4.7388636E+06    2.1092302E+03    5.1351217E+06
    3.37   600.000   -3.169E+02    5.1055573E+06   -3.0434309E+03    1.7588381E+04    4.7310406E+06    3.0434093E+03    5.1055573E+06
    3.38   600.000   -3.173E+02    5.0776717E+06   -4.0713580E+03    1.2118351E+04    4.7274073E+06    4.0713385E+03    5.0776717E+06
    3.39   600.000   -3.177E+02    5.0521326E+06   -5.1797015E+03    6.7968213E+03    4.7283491E+06    5.1796841E+03    5.0521326E+06
    3.40   600.000   -3.181E+02    5.0292029E+06   -6.3464049E+03    1.4258168E+03    4.7337892E+06    6.3463894E+03    5.0292029E+06
    3.41   600.000   -3.184E+02    5.0087740E+06   -7.5454390E+03   -4.2007195E+03    4.7432512E+06    7.5454255E+03    5.0087741E+06
    3.42   600.000   -3.188E+02    4.9904444E+06   -8.7505227E+03   -1.0255203E+04    4.7559906E+06    8.7505109E+03    4.9904444E+06
    3.43   600.000   -3.191E+02    4.9736189E+06   -9.9362359E+03   -1.6837523E+04    4.7711578E+06    9.9362255E+03    4.9736189E+06
    3.44   600.000   -3.194E+02    4.9576081E+06   -1.1076170E+04   -2.3945344E+04    4.7879521E+06    1.1076160E+04    4.9576082E+06
    3.45   600.000   -3.198E+02    4.9417104E+06   -1.2139094E+04   -3.1458709E+04    4.8057249E+06    1.2139085E+04    4.9417104E+06
    3.46   600.000   -3.201E+02    4.9252694E+06   -1.3085053E+04   -3.9141934E+04    4.8240088E+06    1.3085045E+04    4.9252694E+06
    3.47   600.000   -3.204E+02    4.9077100E+06   -1.3863534E+04   -4.6663386E+04    4.8424682E+06    1.3863526E+04    4.9077100E+06
    3.48   600.000   -3.207E+02    4.8885584E+06   -1.4415314E+04   -5.3631310E+04    4.8607836E+06    1.4415306E+04    4.8885584E+06
    3.49   600.000   -3.210E+02    4.8674518E+06   -1.4678559E+04   -5.9641458E+04    4.8784989E+06    1.4678550E+04    4.8674518E+06
    3.50   600.000   -3.213E+02    4.8441408E+06   -1.4598370E+04   -6.4329996E+04    4.8948612E+06    1.4598361E+04    4.8441408E+06
    3.51   600.000   -3.216E+02    4.8184776E+06   -1.4137825E+04   -6.7423551E+04    4.9086881E+06    1.4137816E+04    4.8184776E+06
    3.52   600.000   -3.219E+02    4.7903879E+06   -1.3287792E+04   -6.8777984E+04    4.9182922E+06    1.3287783E+04    4.7903879E+06
    3.53   600.000   -3.221E+02    4.7598271E+06   -1.2072933E+04   -6.8399191E+04    4.9214886E+06    1.2072924E+04    4.7598271E+06
    3.54   600.000   -3.224E+02    4.7267302E+06   -1.0552195E+04   -6.6442603E+04    4.9157079E+06    1.0552188E+04    4.7267302E+06
    3.55   600.000   -3.227E+02    4.6909715E+06   -8.8135671E+03   -6.3192324E+04    4.8982186E+06    8.8135607E+03    4.6909715E+06
    3.56   600.000   -3.230E+02    4.6523496E+06   -6.9642915E+03   -5.9024746E+04    4.8664477E+06    6.9642866E+03    4.6523496E+06
    3.57   600.000   -3.233E+02    4.6106061E+06   -5.1186305E+03   -5.4363980E+04    4.8183552E+06    5.1186273E+03    4.6106061E+06
    3.58   600.000   -3.235E+02    4.5654722E+06   -3.3854191E+03   -4.9636989E+04    4.7527973E+06    3.3854178E+03    4.5654721E+06
    3.59   600.000   -3.238E+02    4.5167296E+06   -1.8571979E+03   -4.5234885E+04    4.6697986E+06    1.8571987E+03    4.5167295E+06
    3.60   600.000   -3.241E+02    4.4642668E+06   -6.0202907E+02   -4.1484231E+04    4.5706646E+06    6.0203198E+02    4.4642668E+06
    3.61   600.000   -3.244E+02    4.4081148E+06    3.4151926E+02   -3.8629393E+04    4.4579011E+06   -3.4151424E+02    4.4081148E+06
    3.62   600.000   -3.246E+02    4.3484574E+06    9.6616481E+02   -3.6825081E+04    4.3349498E+06   -9.6615773E+02    4.3484574E+06
    3.63   600.000   -3.249E+02    4.2856187E+06    1.2946899E+03   -3.6137669E+04    4.2057955E+06   -1.2946809E+03    4.2856186E+06
    3.64   600.000   -3.252E+02    4.2200347E+06    1.3760987E+03   -3.6553998E+04    4.0745234E+06   -1.3760879E+03    4.2200347E+06
    3.65   600.000   -3.255E+02    4.1522202E+06    1.2796850E+03   -3.7996472E+04    3.9449089E+06   -1.2796727E+03    4.1522201E+06
    3.66   600.000   -3.258E+02    4.0827329E+06    1.0876542E+03   -4.0342577E+04    3.8201051E+06   -1.0876406E+03    4.0827329E+06
    3.67   600.000   -3.261E+02    4.0121425E+06    8.8700713E+02   -4.3445652E+04    3.7024630E+06   -8.8699263E+02    4.0121425E+06
    3.68   600.000   -3.264E+02    3.9410042E+06    7.6140992E+02   -4.7152772E+04    3.5934901E+06   -7.6139497E+02    3.9410042E+06
    3.69   600.000   -3.267E+02    3.8698418E+06    7.8375249E+02   -5.1315709E+04    3.4939298E+06   -7.8373756E+02    3.8698417E+06
    3.70   600.000   -3.270E+02    3.7991461E+06    1.0100514E+03   -5.5792680E+04    3.4039261E+06   -1.0100370E+03    3.7991461E+06
    3.71   600.000   -3.273E+02    3.7293937E+06    1.4752688E+03   -6.0441397E+04    3.3232360E+06   -1.4752554E+03    3.7293937E+06
    3.72   600.000   -3.276E+02    3.6610862E+06    2.1914439E+03   -6.5107025E+04    3.2514472E+06   -2.1914320E+03    3.6610862E+06
    3.73   600.000   -3.279E+02    3.5948062E+06    3.1482476E+03   -6.9610727E+04    3.1881692E+06   -3.1482376E+03    3.5948062E+06
    3.74   600.000   -3.282E+02    3.5312762E+06    4.3157249E+03   -7.3744864E+04    3.1331722E+06   -4.3157172E+03    3.5312762E+06
    3.75   600.000   -3.285E+02    3.4714034E+06    5.6487123E+03   -7.7279325E+04    3.0864596E+06   -5.6487073E+03    3.4714034E+06
    3.76   600.000   -3.288E+02    3.4162889E+06    7.0922939E+03   -7.9980339E+04    3.0482719E+06   -7.0922918E+03    3.4162889E+06
    3.77   600.000   -3.291E+02    3.3671886E+06    8.5876812E+03   -8.1639444E+04    3.0190314E+06   -8.5876824E+03    3.3671886E+06
    3.78   600.000   -3.294E+02    3.3254208E+06    1.0077966E+04   -8.2107125E+04    2.9992445E+06   -1.0077971E+04    3.3254207E+06
    3.79   600.000   -3.297E+02    3.2922315E+06    1.1513225E+04   -8.1323767E+04    2.9893848E+06   -1.1513234E+04    3.2922315E+06
    3.80   600.000   -3.300E+02    3.2686400E+06    1.2854483E+04   -7.9340395E+04    2.9897789E+06   -1.2854495E+04    3.2686400E+06
    3.81   600.000   -3.303E+02    3.2552938E+06    1.4076151E+04   -7.6322988E+04    3.0005147E+06   -1.4076168E+04    3.2552938E+06
    3.82   600.000   -3.306E+02    3.2523644E+06    1.5166776E+04   -7.2536942E+04    3.0213844E+06   -1.5166797E+04    3.2523644E+06
    3.83   600.000   -3.309E+02    3.2595043E+06    1.6128175E+04   -6.8312169E+04    3.0518691E+06   -1.6128200E+04    3.2595043E+06
    3.84   600.000   -3.311E+02    3.2758792E+06    1.6973206E+04   -6.3994023E+04    3.0911673E+06   -1.6973235E+04    3.2758792E+06
    3.85   600.000   -3.314E+02    3.3002726E+06    1.7722486E+04   -5.9889781E+04    3.1382682E+06   -1.7722519E+04    3.3002726E+06
    3.86   600.000   -3.317E+02    3.3312562E+06    1.8400317E+04   -5.6223312E+04    3.1920692E+06   -1.8400354E+04    3.3312562E+06
    3.87   600.000   -3.320E+02    3.3674041E+06    1.9030048E+04   -5.3110236E+04    3.2515320E+06   -1.9030088E+04    3.3674041E+06
    3.88   600.000   -3.323E+02    3.4075251E+06    1.9629164E+04   -5.0561406E+04    3.3158639E+06   -1.9629207E+04    3.4075250E+06
    3.89   600.000   -3.327E+02    3.4508775E+06    2.0204483E+04   -4.8514490E+04    3.3846978E+06   -2.0204528E+04    3.4508775E+06
    3.90   600.000   -3.330E+02    3.4973320E+06    2.0748009E+04   -4.6884166E+04    3.4582368E+06   -2.0748056E+04    3.4973320E+06
    3.91   600.000   -3.333E+02    3.5474538E+06    2.1234096E+04   -4.5614421E+04    3.5373314E+06   -2.1234143E+04    3.5474538E+06
    3.92   600.000   -3.336E+02    3.6024918E+06    2.1618547E+04   -4.4715036E+04    3.6234692E+06   -2.1618595E+04    3.6024918E+06
    3.93   600.000   -3.339E+02    3.6642846E+06    2.1840088E+04   -4.4269564E+04    3.7186816E+06   -2.1840136E+04    3.6642845E+06
    3.94   600.000   -3.342E+02    3.7351096E+06    2.1824258E+04   -4.4412274E+04    3.8253926E+06   -2.1824306E+04    3.7351095E+06
    3.95   600.000   -3.345E+02    3.8175115E+06    2.1489410E+04   -4.5282588E+04    3.9462454E+06   -2.1489456E+04    3.8175115E+06
    3.96   600.000   -3.348E+02    3.9141422E+06    2.0754265E+04   -4.6972785E+04    4.0839388E+06   -2.0754310E+04    3.9141422E+06
    3.97   600.000   -3.351E+02    4.0276309E+06    1.9546342E+04   -4.9485827E+04    4.2410899E+06   -1.9546386E+04    4.0276309E+06
    3.98   600.000   -3.355E+02    4.1604879E+06    1.7810525E+04   -5.2715115E+04    4.4201154E+06   -1.7810568E+04    4.1604879E+06
    3.99   600.000   -3.358E+02    4.3150295E+06    1.5516874E+04   -5.6449634E+04    4.6231120E+06   -1.5516915E+04    4.3150295E+06
    4.00   600.000   -3.361E+02    4.4933037E+06    1.2666644E+04   -6.0399774E+04    4.8517073E+06   -1.2666684E+04    4.4933036E+06
    4.01   600.000   -3.365E+02    4.6969975E+06    9.2954374E+03   -6.4233892E+04    5.1068606E+06   -9.2954773E+03    4.6969975E+06
    4.02   600.000   -3.368E+02    4.9273145E+06    5.4727226E+03   -6.7614614E+04    5.3886130E+06   -5.4727621E+03    4.9273144E+06
    4.03   600.000   -3.371E+02    5.1848173E+06    1.2976244E+03   -7.0226693E+04    5.6958061E+06   -1.2976638E+03    5.1848173E+06
    4.04   600.000   -3.375E+02    5.4692479E+06   -3.1082260E+03   -7.1793136E+04    6.0258123E+06    3.1081865E+03    5.4692478E+06
    4.05   600.000   -3.378E+02    5.7793400E+06   -7.6091644E+03   -7.2081490E+04    6.3743340E+06    7.6091246E+03    5.7793399E+06
    4.06   600.000   -3.382E+02    6.1126508E+06   -1.2063224E+04   -7.0905777E+04    6.7353321E+06    1.2063183E+04    6.1126508E+06
    4.07   600.000   -3.386E+02    6.4654390E+06   -1.6327302E+04   -6.8130539E+04    7.1011349E+06    1.6327262E+04    6.4654389E+06
    4.08   600.000   -3.389E+02    6.8326189E+06   -2.0259023E+04   -6.3681725E+04    7.4627552E+06    2.0258982E+04    6.8326188E+06
    4.09   600.000   -3.393E+02    7.2078187E+06   -2.3716196E+04   -5.7565399E+04    7.8104148E+06    2.3716154E+04    7.2078186E+06
    4.10   600.000   -3.397E+02    7.5835587E+06   -2.6556391E+04   -4.9890562E+04    8.1342330E+06    2.6556349E+04    7.5835586E+06
    4.11   600.000   -3.401E+02    7.9515524E+06   -2.8639806E+04   -4.0888611E+04    8.4250022E+06    2.8639764E+04    7.9515524E+06
    4.12   600.000   -3.405E+02    8.3031138E+06   -2.9837805E+04   -3.0920380E+04    8.6749445E+06    2.9837764E+04    8.3031137E+06
    4.13   600.000   -3.409E+02    8.6296353E+06   -3.0047377E+04   -2.0463411E+04    8.8783354E+06    3.0047336E+04    8.6296352E+06
    4.14   600.000   -3.413E+02    8.9230933E+06   -2.9209058E+04   -1.0076629E+04    9.0318968E+06    2.9209019E+04    8.9230932E+06
    4.15   600.000   -3.417E+02    9.1765316E+06   -2.7323904E+04   -3.4572182E+02    9.1349027E+06    2.7323865E+04    9.1765315E+06
    4.16   600.000   -3.421E+02    9.3844798E+06   -2.4464519E+04    8.1818729E+03    9.1889926E+06    2.4464482E+04    9.3844797E+06
    4.17   600.000   -3.425E+02    9.5432713E+06   -2.0776400E+04    1.5060118E+04    9.1977473E+06    2.0776364E+04    9.5432712E+06
    4.18   600.000   -3.429E+02    9.6512334E+06   -1.6468170E+04    1.9993427E+04    9.1661207E+06    1.6468136E+04    9.6512333E+06
    4.19   600.000   -3.433E+02    9.7087352E+06   -1.1792072E+04    2.2862748E+04    9.0998474E+06    1.1792039E+04    9.7087351E+06
    4.20   600.000   -3.437E+02    9.7180907E+06   -7.0182531E+03    2.3725440E+04    9.0049302E+06    7.0182214E+03    9.7180906E+06
    4.21   600.000   -3.441E+02    9.6833307E+06   -2.4075934E+03    2.2791659E+04    8.8872823E+06    2.4075630E+03    9.6833307E+06
    4.22   600.000   -3.445E+02    9.6098740E+06    1.8123417E+03    2.0384432E+04    8.7525469E+06   -1.8123712E+03    9.6098739E+06
    4.23   600.000   -3.449E+02    9.5041402E+06    5.4647752E+03    1.6892361E+04    8.6060690E+06   -5.4648040E+03    9.5041401E+06
    4.24   600.000   -3.453E+02    9.3731522E+06    8.4330088E+03    1.2723130E+04    8.4529614E+06   -8.4330370E+03    9.3731522E+06
    4.25   600.000   -3.456E+02    9.2241703E+06    1.0661757E+04    8.2636127E+03    8.2981908E+06   -1.0661785E+04    9.2241702E+06
    4.26   600.000   -3.460E+02    9.0643839E+06    1.2152106E+04    3.8498078E+03    8.1466240E+06   -1.2152134E+04    9.0643839E+06
    4.27   600.000   -3.464E+02    8.9006701E+06    1.2952272E+04   -2.5233488E+02    8.0029921E+06   -1.2952299E+04    8.9006700E+06
    4.28   600.000   -3.468E+02    8.7394060E+06    1.3146150E+04   -3.8556268E+03    7.8717684E+06   -1.3146177E+04    8.7394060E+06
    4.29   600.000   -3.471E+02    8.5863184E+06    1.2841108E+04   -6.8514327E+03    7.7569783E+06   -1.2841136E+04    8.5863183E+06
    4.30   600.000   -3.475E+02    8.4463477E+06    1.2155847E+04   -9.2029720E+03    7.6619807E+06   -1.2155874E+04    8.4463476E+06
    4.31   600.000   -3.479E+02    8.3235206E+06    1.1208858E+04   -1.0935135E+04    7.5892643E+06   -1.1208885E+04    8.3235205E+06
    4.32   600.000   -3.482E+02    8.2208301E+06    1.0108117E+04   -1.2123836E+04    7.5402946E+06   -1.0108144E+04    8.2208300E+06
    4.33   600.000   -3.486E+02    8.1401379E+06    8.9429340E+03   -1.2887182E+04    7.5154308E+06   -8.9429603E+03    8.1401379E+06
    4.34   600.000   -3.490E+02    8.0821134E+06    7.7790749E+03   -1.3379298E+04    7.5139178E+06   -7.7791013E+03    8.0821134E+06
    4.35   600.000   -3.493E+02    8.0462253E+06    6.6580432E+03   -1.3785752E+04    7.5339476E+06   -6.6580697E+03    8.0462252E+06
    4.36   600.000   -3.497E+02    8.0307972E+06    5.6005944E+03   -1.4317752E+04    7.5727777E+06   -5.6006213E+03    8.0307971E+06
    4.37   600.000   -3.500E+02    8.0331329E+06    4.6134613E+03   -1.5201266E+04    7.6269017E+06   -4.6134891E+03    8.0331329E+06
    4.38   600.000   -3.504E+02    8.0497113E+06    3.6972680E+03   -1.6657668E+04    7.6922603E+06   -3.6972968E+03    8.0497112E+06
    4.39   600.000   -3.508E+02    8.0764422E+06    2.8532195E+03   -1.8874933E+04    7.7644874E+06   -2.8532498E+03    8.0764422E+06
    4.40   600.000   -3.511E+02    8.1089720E+06    2.0865697E+03   -2.1972476E+04    7.8391747E+06   -2.0866018E+03    8.1089719E+06
    4.41   600.000   -3.515E+02    8.1430127E+06    1.4059631E+03   -2.5967302E+04    7.9121383E+06   -1.4059973E+03    8.1430127E+06
    4.42   600.000   -3.519E+02    8.1746719E+06    8.1918849E+02   -3.0752245E+04    7.9796634E+06   -8.1922479E+02    8.1746719E+06
    4.43   600.000   -3.523E+02    8.2007486E+06    3.2721398E+02   -3.6096824E+04    8.0387107E+06   -3.2725257E+02    8.2007486E+06
    4.44   600.000   -3.527E+02    8.2189693E+06   -8.0806598E+01   -4.1676691E+04    8.0870689E+06    8.0765707E+01    8.2189693E+06
    4.45   600.000   -3.530E+02    8.2281359E+06   -4.2894879E+02   -4.7129444E+04    8.1234490E+06    4.2890564E+02    8.2281359E+06
    4.46   600.000   -3.534E+02    8.2281700E+06   -7.5088310E+02   -5.2125126E+04    8.1475182E+06    7.5083781E+02    8.2281699E+06
    4.47   600.000   -3.538E+02    8.2200478E+06   -1.0816938E+03   -5.6432668E+04    8.1598759E+06    1.0816466E+03    8.2200478E+06
    4.48   600.000   -3.542E+02    8.2056344E+06   -1.4477330E+03   -5.9962092E+04    8.1619724E+06    1.4476840E+03    8.2056344E+06
    4.49   600.000   -3.546E+02    8.1874381E+06   -1.8582884E+03   -6.2768319E+04    8.1559706E+06    1.8582379E+03    8.1874381E+06
    4.50   600.000   -3.550E+02    8.1683175E+06   -2.3024386E+03   -6.5014513E+04    8.1445544E+06    2.3023869E+03    8.1683175E+06
    4.51   600.000   -3.554E+02    8.1511791E+06   -2.7525135E+03   -6.6906835E+04    8.1306900E+06    2.7524607E+03    8.1511791E+06
    4.52   600.000   -3.558E+02    8.1387028E+06   -3.1729740E+03   -6.8622560E+04    8.1173585E+06    3.1729206E+03    8.1387028E+06
    4.53   600.000   -3.562E+02    8.1331295E+06   -3.5315286E+03   -7.0255246E+04    8.1072865E+06    3.5314747E+03    8.1331295E+06
    4.54   600.000   -3.566E+02    8.1361351E+06   -3.8087835E+03   -7.1793200E+04    8.1027120E+06    3.8087294E+03    8.1361351E+06
    4.55   600.000   -3.570E+02    8.1487983E+06   -4.0037097E+03   -7.3134253E+04    8.1052150E+06    4.0036557E+03    8.1487983E+06
    4.56   600.000   -3.574E+02    8.1716513E+06   -4.1339790E+03   -7.4126854E+04    8.1156366E+06    4.1339253E+03    8.1716513E+06
    4.57   600.000   -3.578E+02    8.2047816E+06   -4.2318568E+03   -7.4620219E+04    8.1340861E+06    4.2318037E+03    8.2047816E+06
    4.58   600.000   -3.583E+02    8.2479389E+06   -4.3373070E+03   -7.4506842E+04    8.1600175E+06    4.3372548E+03    8.2479389E+06
    4.59   600.000   -3.587E+02    8.3006006E+06   -4.4902176E+03   -7.3747421E+04    8.1923445E+06    4.4901666E+03    8.3006007E+06
    4.60   600.000   -3.591E+02    8.3619627E+06   -4.7234872E+03   -7.2376797E+04    8.2295608E+06    4.7234380E+03    8.3619627E+06
    4.61   600.000   -3.595E+02    8.4308511E+06   -5.0583127E+03   -7.0495798E+04    8.2698417E+06    5.0582658E+03    8.4308512E+06
    4.62   600.000   -3.600E+02    8.5055787E+06   -5.5024345E+03   -6.8255944E+04    8.3111178E+06    5.5023903E+03    8.5055788E+06
    4.63   600.000   -3.604E+02    8.5837966E+06   -6.0513093E+03   -6.5842349E+04    8.3511240E+06    6.0512685E+03    8.5837966E+06
    4.64   600.000   -3.609E+02    8.6624018E+06   -6.6913542E+03   -6.3456924E+04    8.3874373E+06    6.6913173E+03    8.6624018E+06
    4.65   600.000   -3.613E+02    8.7375543E+06   -7.4038514E+03   -6.1301559E+04    8.4175195E+06    7.4038190E+03    8.7375543E+06
    4.66   600.000   -3.618E+02    8.8048332E+06   -8.1681112E+03   -5.9560327E+04    8.4387770E+06    8.1680838E+03    8.8048332E+06
    4.67   600.000   -3.622E+02    8.8595302E+06   -8.9630663E+03   -5.8380926E+04    8.4486474E+06    8.9630445E+03    8.8595302E+06
    4.68   600.000   -3.627E+02    8.8970398E+06   -9.7673136E+03   -5.7857334E+04    8.4447112E+06    9.7672977E+03    8.8970398E+06
    4.69   600.000   -3.631E+02    8.9132847E+06   -1.0558287E+04   -5.8016690E+04    8.4248258E+06    1.0558277E+04    8.9132847E+06
    4.70   600.000   -3.636E+02    8.9050973E+06   -1.1311415E+04   -5.8813354E+04    8.3872691E+06    1.1311412E+04    8.9050973E+06
    4.71   600.000   -3.640E+02    8.8704946E+06   -1.1999813E+04   -6.0131968E+04    8.3308788E+06    1.1999816E+04    8.8704946E+06
    4.72   600.000   -3.645E+02    8.8088048E+06   -1.2594583E+04   -6.1799667E+04    8.2551720E+06    1.2594593E+04    8.8088048E+06
    4.73   600.000   -3.649E+02    8.7206460E+06   -1.3065601E+04   -6.3605647E+04    8.1604288E+06    1.3065617E+04    8.7206460E+06
    4.74   600.000   -3.653E+02    8.6077880E+06   -1.3382774E+04   -6.5324287E+04    8.0477313E+06    1.3382795E+04    8.6077880E+06
    4.75   600.000   -3.658E+02    8.4729490E+06   -1.3518017E+04   -6.6736702E+04    7.9189511E+06    1.3518044E+04    8.4729490E+06
    4.76   600.000   -3.662E+02    8.3195765E+06   -1.3448145E+04   -6.7645841E+04    7.7766822E+06    1.3448176E+04    8.3195765E+06
    4.77   600.000   -3.666E+02    8.1516401E+06   -1.3158355E+04   -6.7882679E+04    7.6241225E+06    1.3158390E+04    8.1516401E+06
    4.78   600.000   -3.671E+02    7.9734417E+06   -1.2645477E+04   -6.7304744E+04    7.4649044E+06    1.2645516E+04    7.9734416E+06
    4.79   600.000   -3.675E+02    7.7894248E+06   -1.1920027E+04   -6.5791389E+04    7.3028841E+06    1.1920067E+04    7.7894247E+06
    4.80   600.000   -3.679E+02    7.6039648E+06   -1.1006600E+04   -6.3241149E+04    7.1419015E+06    1.1006643E+04    7.6039647E+06
    4.81   600.000   -3.683E+02    7.4211297E+06   -9.9429785E+03   -5.9574821E+04    6.9855294E+06    9.9430225E+03    7.4211297E+06
    4.82   600.000   -3.687E+02    7.2444235E+06   -8.7786975E+03   -5.4745021E+04    6.8368304E+06    8.7787425E+03    7.2444235E+06
    4.83   600.000   -3.691E+02    7.0765435E+06   -7.5736403E+03   -4.8750370E+04    6.6981476E+06    7.5736858E+03    7.0765435E+06
    4.84   600.000   -3.695E+02    6.9191929E+06   -6.3964221E+03   -4.1651245E+04    6.5709468E+06    6.3964677E+03    6.9191929E+06
    4.85   600.000   -3.699E+02    6.7729887E+06   -5.3216691E+03   -3.3583577E+04    6.4557298E+06    5.3217146E+03    6.7729886E+06
    4.86   600.000   -3.703E+02    6.6374893E+06   -4.4252403E+03   -2.4766758E+04    6.3520302E+06    4.4252852E+03    6.6374892E+06
    4.87   600.000   -3.707E+02    6.5113465E+06   -3.7771560E+03   -1.5501257E+04    6.2584966E+06    3.7772000E+03    6.5113464E+06
    4.88   600.000   -3.710E+02    6.3925611E+06   -3.4331099E+03   -6.1520286E+03    6.1730565E+06    3.4331525E+03    6.3925611E+06
    4.89   600.000   -3.714E+02    6.2788060E+06   -3.4263328E+03    2.8835324E+03    6.0931480E+06    3.4263738E+03    6.2788060E+06
    4.90   600.000   -3.718E+02    6.1677664E+06   -3.7617870E+03    1.1219381E+04    6.0159930E+06    3.7618261E+03    6.1677664E+06
    4.91   600.000   -3.722E+02    6.0574490E+06   -4.4141056E+03    1.8527157E+04    5.9388836E+06    4.4141426E+03    6.0574489E+06
    4.92   600.000   -3.725E+02    5.9464158E+06   -5.3296614E+03    2.4572721E+04    5.8594469E+06    5.3296959E+03    5.9464158E+06
    4.93   600.000   -3.729E+02    5.8339139E+06   -6.4321253E+03    2.9232079E+04    5.7758555E+06    6.4321572E+03    5.8339139E+06
    4.94   600.000   -3.732E+02    5.7198877E+06   -7.6302555E+03    3.2482327E+04    5.6869578E+06    7.6302845E+03    5.7198877E+06
    4.95   600.000   -3.736E+02    5.6048820E+06   -8.8265757E+03    3.4372002E+04    5.5923093E+06    8.8266015E+03    5.6048820E+06
    4.96   600.000   -3.739E+02    5.4898558E+06   -9.9259218E+03    3.4982546E+04    5.4921015E+06    9.9259442E+03    5.4898557E+06
    4.97   600.000   -3.743E+02    5.3759411E+06   -1.0843248E+04    3.4395036E+04    5.3870039E+06    1.0843266E+04    5.3759410E+06
    4.98   600.000   -3.746E+02    5.2641859E+06   -1.1510322E+04    3.2673067E+04    5.2779455E+06    1.1510337E+04    5.2641858E+06
    4.99   600.000   -3.749E+02    5.1553196E+06   -1.1880937E+04    2.9865371E+04    5.1658811E+06    1.1880948E+04    5.1553195E+06
    5.00   600.000   -3.752E+02    5.0495774E+06   -1.1934135E+04    2.6023925E+04    5.0515861E+06    1.1934141E+04    5.0495773E+06
# T(K) = 700.00   Npoints =    1001   V(cm^3) =  1.231E-20
   -5.00   700.000    3.457E+02    1.6913406E+06   -6.5038165E+02   -2.7347303E+04    1.6216957E+06    6.5037460E+02    1.6913406E+06
   -4.99   700.000    3.449E+02    1.6926051E+06   -4.7944467E+02   -2.4333487E+04    1.6228407E+06    4.7943717E+02    1.6926051E+06
   -4.98   700.000    3.441E+02    1.6896703E+06   -3.2050499E+02   -2.1267731E+04    1.6204520E+06    3.2049701E+02    1.6896703E+06
   -4.97   700.000    3.434E+02    1.6828562E+06   -1.6673425E+02   -1.8219713E+04    1.6147470E+06    1.6672574E+02    1.6828562E+06
   -4.96   700.000    3.426E+02    1.6725230E+06   -1.2627789E+01   -1.5250097E+04    1.6059552E+06    1.2618707E+01    1.6725230E+06
   -4.95   700.000    3.418E+02    1.6590494E+06    1.4541570E+02   -1.2407865E+04    1.5943129E+06   -1.4542539E+02    1.6590494E+06
   -4.94   700.000    3.411E+02    1.6428095E+06    3.0878789E+02   -9.7295948E+03    1.5800549E+06   -3.0879823E+02    1.6428095E+06
   -4.93   700.000    3.403E+02    1.6241515E+06    4.7666083E+02   -7.2404025E+03    1.5634052E+06   -4.7667186E+02    1.6241515E+06
   -4.92   700.000    3.396E+02    1.6033803E+06    6.4624915E+02   -4.9559919E+03    1.5445685E+06   -6.4626089E+02    1.6033803E+06
   -4.91   700.000    3.389E+02    1.5807462E+06    8.1328096E+02   -2.8851571E+03    1.5237224E+06   -8.1329344E+02    1.5807462E+06
   -4.90   700.000    3.381E+02    1.5564410E+06    9.7259275E+02   -1.0321425E+03    1.5010135E+06   -9.7260598E+02    1.5564411E+06
   -4.89   700.000    3.374E+02    1.5306004E+06    1.1187623E+03    6.0153899E+02    1.4765569E+06   -1.1187763E+03    1.5306004E+06
   -4.88   700.000    3.367E+02    1.5033112E+06    1.2467081E+03    2.0160037E+03    1.4504387E+06   -1.2467228E+03    1.5033112E+06
   -4.87   700.000    3.360E+02    1.4746229E+06    1.3522021E+03    3.2125789E+03    1.4227230E+06   -1.3522174E+03    1.4746230E+06
   -4.86   700.000    3.352E+02    1.4445598E+06    1.4322618E+03    4.1939008E+03    1.3934590E+06   -1.4322777E+03    1.4445598E+06
   -4.85   700.000    3.345E+02    1.4131326E+06    1.4853975E+03    4.9642991E+03    1.3626896E+06   -1.4854140E+03    1.4131326E+06
   -4.84   700.000    3.339E+02    1.3803483E+06    1.5117002E+03    5.5302532E+03    1.3304584E+06   -1.5117171E+03    1.3803484E+06
   -4.83   700.000    3.332E+02    1.3462177E+06    1.5127653E+03    5.9007633E+03    1.2968149E+06   -1.5127825E+03    1.3462178E+06
   -4.82   700.000    3.325E+02    1.3107595E+06    1.4914611E+03    6.0875489E+03    1.2618175E+06   -1.4914785E+03    1.3107596E+06
   -4.81   700.000    3.319E+02    1.2740031E+06    1.4515701E+03    6.1050472E+03    1.2255351E+06   -1.4515875E+03    1.2740031E+06
   -4.80   700.000    3.312E+02    1.2359895E+06    1.3973488E+03    5.9702016E+03    1.1880467E+06   -1.3973663E+03    1.2359895E+06
   -4.79   700.000    3.306E+02    1.1967719E+06    1.3330687E+03    5.7020361E+03    1.1494419E+06   -1.3330861E+03    1.1967719E+06
   -4.78   700.000    3.300E+02    1.1564170E+06    1.2626037E+03    5.3210060E+03    1.1098201E+06   -1.2626209E+03    1.1564170E+06
   -4.77   700.000    3.294E+02    1.1150066E+06    1.1891246E+03    4.8481411E+03    1.0692910E+06   -1.1891416E+03    1.1150066E+06
   -4.76   700.000    3.288E+02    1.0726403E+06    1.1149408E+03    4.3040415E+03    1.0279757E+06   -1.1149575E+03    1.0726403E+06
   -4.75   700.000    3.283E+02    1.0294385E+06    1.0414981E+03    3.7078525E+03    9.8600707E+05   -1.0415145E+03    1.0294385E+06
   -4.74   700.000    3.277E+02    9.8554553E+05    9.6951358E+02    3.0763825E+03    9.4353209E+05   -9.6952961E+02    9.8554554E+05
   -4.73   700.000    3.272E+02    9.4113134E+05    8.9919900E+02    2.4235246E+03    9.0071219E+05   -8.9921462E+02    9.4113136E+05
   -4.72   700.000    3.267E+02    8.9639160E+05    8.3051423E+02    1.7600833E+03    8.5772406E+05   -8.3052940E+02    8.9639161E+05
   -4.71   700.000    3.262E+02    8.5154513E+05    7.6339681E+02    1.0940165E+03    8.1475898E+05   -7.6341148E+02    8.5154514E+05
   -4.70   700.000    3.257E+02    8.0682897E+05    6.9793044E+02    4.3100944E+02    7.7202090E+05   -6.9794455E+02    8.0682898E+05
   -4.69   700.000    3.253E+02    7.6249124E+05    6.3443950E+02   -2.2476692E+02    7.2972291E+05   -6.3445303E+02    7.6249125E+05
   -4.68   700.000    3.248E+02    7.1878287E+05    5.7351652E+02   -8.6987825E+02    6.8808249E+05   -5.7352942E+02    7.1878288E+05
   -4.67   700.000    3.243E+02    6.7594915E+05    5.1599951E+02   -1.5009704E+03    6.4731593E+05   -5.1601174E+02    6.7594916E+05
   -4.66   700.000    3.239E+02    6.3422229E+05    4.6291689E+02   -2.1143196E+03    6.0763279E+05   -4.6292843E+02    6.3422230E+05
   -4.65   700.000    3.234E+02    5.9381569E+05    4.1541126E+02   -2.7056136E+03    5.6923104E+05   -4.1542208E+02    5.9381570E+05
   -4.64   700.000    3.230E+02    5.5492025E+05    3.7464665E+02   -3.2699356E+03    5.3229354E+05   -3.7465675E+02    5.5492026E+05
   -4.63   700.000    3.226E+02    5.1770254E+05    3.4170139E+02   -3.8018933E+03    4.9698586E+05   -3.4171076E+02    5.1770255E+05
   -4.62   700.000    3.221E+02    4.8230440E+05    3.1745128E+02   -4.2958259E+03    4.6345541E+05   -3.1745994E+02    4.8230441E+05
   -4.61   700.000    3.217E+02    4.4884338E+05    3.0245410E+02   -4.7460339E+03    4.3183130E+05   -3.0246206E+02    4.4884340E+05
   -4.60   700.000    3.212E+02    4.1741353E+05    2.9685255E+02   -5.1469972E+03    4.0222445E+05   -2.9685982E+02    4.1741355E+05
   -4.59   700.000    3.207E+02    3.8808611E+05    3.0031463E+02   -5.4935708E+03    3.7472746E+05   -3.0032125E+02    3.8808613E+05
   -4.58   700.000    3.202E+02    3.6091027E+05    3.1202668E+02   -5.7811654E+03    3.4941406E+05   -3.1203268E+02    3.6091029E+05
   -4.57   700.000    3.197E+02    3.3591363E+05    3.3074511E+02   -6.0059293E+03    3.2633796E+05   -3.3075051E+02    3.3591365E+05
   -4.56   700.000    3.192E+02    3.1310292E+05    3.5490137E+02   -6.1649446E+03    3.0553127E+05   -3.5490622E+02    3.1310293E+05
   -4.55   700.000    3.186E+02    2.9246477E+05    3.8274443E+02   -6.2564418E+03    2.8700258E+05   -3.8274876E+02    2.9246478E+05
   -4.54   700.000    3.180E+02    2.7396674E+05    4.1249801E+02   -6.2800171E+03    2.7073510E+05   -4.1250186E+02    2.7396675E+05
   -4.53   700.000    3.174E+02    2.5755857E+05    4.4250814E+02   -6.2368276E+03    2.5668499E+05   -4.4251155E+02    2.5755858E+05
   -4.52   700.000    3.167E+02    2.4317368E+05    4.7135941E+02   -6.1297256E+03    2.4478031E+05   -4.7136242E+02    2.4317369E+05
   -4.51   700.000    3.160E+02    2.3073070E+05    4.9794447E+02   -5.9633000E+03    2.3492087E+05   -4.9794712E+02    2.3073071E+05
   -4.50   700.000    3.152E+02    2.2013516E+05    5.2148006E+02   -5.7438048E+03    2.2697911E+05   -5.2148238E+02    2.2013517E+05
   -4.49   700.000    3.144E+02    2.1128107E+05    5.4147155E+02   -5.4789744E+03    2.2080244E+05   -5.4147358E+02    2.1128107E+05
   -4.48   700.000    3.136E+02    2.0405228E+05    5.5763716E+02   -5.1777506E+03    2.1621672E+05   -5.5763893E+02    2.0405228E+05
   -4.47   700.000    3.127E+02    1.9832370E+05    5.6980936E+02   -4.8499581E+03    2.1303101E+05   -5.6981091E+02    1.9832371E+05
   -4.46   700.000    3.117E+02    1.9396217E+05    5.7783522E+02   -4.5059733E+03    2.1104312E+05   -5.7783658E+02    1.9396217E+05
   -4.45   700.000    3.107E+02    1.9082704E+05    5.8149681E+02   -4.1564139E+03    2.1004553E+05   -5.8149800E+02    1.9082704E+05
   -4.44   700.000    3.096E+02    1.8877077E+05    5.8046848E+02   -3.8118566E+03    2.0983122E+05   -5.8046954E+02    1.8877077E+05
   -4.43   700.000    3.084E+02    1.8763944E+05    5.7431959E+02   -3.4825652E+03    2.1019892E+05   -5.7432055E+02    1.8763944E+05
   -4.42   700.000    3.072E+02    1.8727364E+05    5.6256123E+02   -3.1781943E+03    2.1095727E+05   -5.6256210E+02    1.8727364E+05
   -4.41   700.000    3.058E+02    1.8750973E+05    5.4472556E+02   -2.9074433E+03    2.1192796E+05   -5.4472637E+02    1.8750973E+05
   -4.40   700.000    3.044E+02    1.8818181E+05    5.2045965E+02   -2.6776534E+03    2.1294759E+05   -5.2046042E+02    1.8818181E+05
   -4.39   700.000    3.028E+02    1.8912425E+05    4.8961249E+02   -2.4943846E+03    2.1386879E+05   -4.8961324E+02    1.8912425E+05
   -4.38   700.000    3.012E+02    1.9017508E+05    4.5229647E+02   -2.3610345E+03    2.1456068E+05   -4.5229720E+02    1.9017507E+05
   -4.37   700.000    2.994E+02    1.9117983E+05    4.0891071E+02   -2.2785869E+03    2.1490937E+05   -4.0891143E+02    1.9117982E+05
   -4.36   700.000    2.975E+02    1.9199594E+05    3.6012306E+02   -2.2455602E+03    2.1481860E+05   -3.6012377E+02    1.9199594E+05
   -4.35   700.000    2.955E+02    1.9249731E+05    3.0681616E+02   -2.2582010E+03    2.1421093E+05   -3.0681687E+02    1.9249730E+05
   -4.34   700.000    2.933E+02    1.9257876E+05    2.5000982E+02   -2.3109123E+03    2.1302933E+05   -2.5001051E+02    1.9257875E+05
   -4.33   700.000    2.910E+02    1.9216013E+05    1.9077424E+02   -2.3968623E+03    2.1123897E+05   -1.9077491E+02    1.9216013E+05
   -4.32   700.000    2.885E+02    1.9118960E+05    1.3014676E+02   -2.5086809E+03    2.0882902E+05   -1.3014740E+02    1.9118960E+05
   -4.31   700.000    2.859E+02    1.8964591E+05    6.9059742E+01   -2.6391403E+03    2.0581393E+05   -6.9060327E+01    1.8964591E+05
   -4.30   700.000    2.831E+02    1.8753935E+05    8.2818010E+00   -2.7817238E+03    2.0223389E+05   -8.2823222E+00    1.8753934E+05
   -4.29   700.000    2.802E+02    1.8491114E+05   -5.1628999E+01   -2.9310186E+03    1.9815416E+05    5.1628557E+01    1.8491114E+05
   -4.28   700.000    2.772E+02    1.8183137E+05   -1.1036216E+02   -3.0829075E+03    1.9366318E+05    1.1036181E+02    1.8183136E+05
   -4.27   700.000    2.741E+02    1.7839536E+05   -1.6788209E+02   -3.2345702E+03    1.8886932E+05    1.6788185E+02    1.7839535E+05
   -4.26   700.000    2.708E+02    1.7471885E+05   -2.2444339E+02   -3.3843413E+03    1.8389664E+05    2.2444327E+02    1.7471884E+05
   -4.25   700.000    2.675E+02    1.7093222E+05   -2.8059038E+02   -3.5314823E+03    1.7887961E+05    2.8059039E+02    1.7093222E+05
   -4.24   700.000    2.640E+02    1.6717419E+05   -3.3713837E+02   -3.6759291E+03    1.7395752E+05    3.3713852E+02    1.6717418E+05
   -4.23   700.000    2.605E+02    1.6358543E+05   -3.9513725E+02   -3.8180629E+03    1.6926855E+05    3.9513754E+02    1.6358543E+05
   -4.22   700.000    2.568E+02    1.6030261E+05   -4.5582133E+02   -3.9585321E+03    1.6494426E+05    4.5582176E+02    1.6030261E+05
   -4.21   700.000    2.531E+02    1.5745303E+05   -5.2055149E+02   -4.0981318E+03    1.6110466E+05    5.2055205E+02    1.5745303E+05
   -4.20   700.000    2.494E+02    1.5515037E+05   -5.9075528E+02   -4.2377323E+03    1.5785413E+05    5.9075596E+02    1.5515036E+05
   -4.19   700.000    2.456E+02    1.5349155E+05   -6.6786806E+02   -4.3782399E+03    1.5527849E+05    6.6786886E+02    1.5349154E+05
   -4.18   700.000    2.417E+02    1.5255491E+05   -7.5327471E+02   -4.5205747E+03    1.5344323E+05    7.5327561E+02    1.5255491E+05
   -4.17   700.000    2.378E+02    1.5239964E+05   -8.4824761E+02   -4.6656555E+03    1.5239296E+05    8.4824861E+02    1.5239964E+05
   -4.16   700.000    2.339E+02    1.5306631E+05   -9.5387488E+02   -4.8143894E+03    1.5215195E+05    9.5387595E+02    1.5306631E+05
   -4.15   700.000    2.299E+02    1.5457846E+05   -1.0709726E+03   -4.9676700E+03    1.5272569E+05    1.0709738E+03    1.5457846E+05
   -4.14   700.000    2.259E+02    1.5694488E+05   -1.1999777E+03   -5.1263886E+03    1.5410321E+05    1.1999789E+03    1.5694487E+05
   -4.13   700.000    2.219E+02    1.6016221E+05   -1.3408226E+03   -5.2914565E+03    1.5625996E+05    1.3408238E+03    1.6016221E+05
   -4.12   700.000    2.178E+02    1.6421773E+05   -1.4928001E+03   -5.4638310E+03    1.5916086E+05    1.4928014E+03    1.6421773E+05
   -4.11   700.000    2.138E+02    1.6909164E+05   -1.6544339E+03   -5.6445304E+03    1.6276335E+05    1.6544352E+03    1.6909164E+05
   -4.10   700.000    2.098E+02    1.7475883E+05   -1.8233747E+03   -5.8346179E+03    1.6702011E+05    1.8233759E+03    1.7475883E+05
   -4.09   700.000    2.058E+02    1.8118971E+05   -1.9963453E+03   -6.0351362E+03    1.7188114E+05    1.9963466E+03    1.8118971E+05
   -4.08   700.000    2.018E+02    1.8834999E+05   -2.1691558E+03   -6.2469819E+03    1.7729518E+05    2.1691571E+03    1.8834999E+05
   -4.07   700.000    1.979E+02    1.9619956E+05   -2.3368012E+03   -6.4707156E+03    1.8321034E+05    2.3368025E+03    1.9619956E+05
   -4.06   700.000    1.941E+02    2.0469045E+05   -2.4936476E+03   -6.7063144E+03    1.8957390E+05    2.4936488E+03    2.0469045E+05
   -4.05   700.000    1.903E+02    2.1376426E+05   -2.6337026E+03   -6.9528860E+03    1.9633161E+05    2.6337038E+03    2.1376426E+05
   -4.04   700.000    1.866E+02    2.2334948E+05   -2.7509564E+03   -7.2083677E+03    2.0342647E+05    2.7509575E+03    2.2334948E+05
   -4.03   700.000    1.830E+02    2.3335905E+05   -2.8397723E+03   -7.4692490E+03    2.1079734E+05    2.8397734E+03    2.3335905E+05
   -4.02   700.000    1.796E+02    2.4368880E+05   -2.8953022E+03   -7.7303621E+03    2.1837757E+05    2.8953032E+03    2.4368879E+05
   -4.01   700.000    1.762E+02    2.5421701E+05   -2.9138908E+03   -7.9847986E+03    2.2609399E+05    2.9138918E+03    2.5421701E+05
   -4.00   700.000    1.730E+02    2.6480569E+05   -2.8934340E+03   -8.2240111E+03    2.3386629E+05    2.8934349E+03    2.6480569E+05
   -3.99   700.000    1.699E+02    2.7530356E+05   -2.8336497E+03   -8.4381555E+03    2.4160732E+05    2.8336504E+03    2.7530356E+05
   -3.98   700.000    1.669E+02    2.8555093E+05   -2.7362292E+03   -8.6167028E+03    2.4922422E+05    2.7362299E+03    2.8555093E+05
   -3.97   700.000    1.641E+02    2.9538619E+05   -2.6048451E+03   -8.7493083E+03    2.5662082E+05    2.6048456E+03    2.9538619E+05
   -3.96   700.000    1.614E+02    3.0465366E+05   -2.4450057E+03   -8.8268670E+03    2.6370124E+05    2.4450061E+03    3.0465366E+05
   -3.95   700.000    1.589E+02    3.1321201E+05   -2.2637676E+03   -8.8426317E+03    2.7037451E+05    2.2637679E+03    3.1321201E+05
   -3.94   700.000    1.565E+02    3.2094255E+05   -2.0693288E+03   -8.7932293E+03    2.7656005E+05    2.0693289E+03    3.2094254E+05
   -3.93   700.000    1.542E+02    3.2775635E+05   -1.8705359E+03   -8.6794161E+03    2.8219325E+05    1.8705359E+03    3.2775634E+05
   -3.92   700.000    1.520E+02    3.3359943E+05   -1.6763462E+03   -8.5064539E+03    2.8723032E+05    1.6763462E+03    3.3359943E+05
   -3.91   700.000    1.500E+02    3.3845524E+05   -1.4952823E+03   -8.2840694E+03    2.9165186E+05    1.4952821E+03    3.3845524E+05
   -3.90   700.000    1.480E+02    3.4234411E+05   -1.3349156E+03   -8.0260378E+03    2.9546431E+05    1.3349153E+03    3.4234411E+05
   -3.89   700.000    1.462E+02    3.4531998E+05   -1.2014123E+03   -7.7494927E+03    2.9869925E+05    1.2014119E+03    3.4531997E+05
   -3.88   700.000    1.444E+02    3.4746475E+05   -1.0991675E+03   -7.4740753E+03    3.0141052E+05    1.0991671E+03    3.4746474E+05
   -3.87   700.000    1.427E+02    3.4888141E+05   -1.0305507E+03   -7.2210055E+03    3.0366984E+05    1.0305501E+03    3.4888141E+05
   -3.86   700.000    1.411E+02    3.4968674E+05   -9.9577642E+02   -7.0121115E+03    3.0556150E+05    9.9577585E+02    3.4968674E+05
   -3.85   700.000    1.396E+02    3.5000445E+05   -9.9290871E+02   -6.8688207E+03    3.0717694E+05    9.9290811E+02    3.5000444E+05
   -3.84   700.000    1.381E+02    3.4995939E+05   -1.0179942E+03   -6.8111158E+03    3.0860976E+05    1.0179936E+03    3.4995939E+05
   -3.83   700.000    1.367E+02    3.4967298E+05   -1.0653137E+03   -6.8564960E+03    3.0995150E+05    1.0653131E+03    3.4967298E+05
   -3.82   700.000    1.353E+02    3.4925965E+05   -1.1277325E+03   -7.0190334E+03    3.1128816E+05    1.1277319E+03    3.4925965E+05
   -3.81   700.000    1.340E+02    3.4882409E+05   -1.1971233E+03   -7.3086498E+03    3.1269751E+05    1.1971227E+03    3.4882409E+05
   -3.80   700.000    1.327E+02    3.4845891E+05   -1.2648347E+03   -7.7307336E+03    3.1424674E+05    1.2648342E+03    3.4845891E+05
   -3.79   700.000    1.314E+02    3.4824260E+05   -1.3221737E+03   -8.2861705E+03    3.1599038E+05    1.3221732E+03    3.4824260E+05
   -3.78   700.000    1.302E+02    3.4823772E+05   -1.3608693E+03   -8.9717802E+03    3.1796848E+05    1.3608688E+03    3.4823771E+05
   -3.77   700.000    1.290E+02    3.4848955E+05   -1.3734837E+03   -9.7810579E+03    3.2020508E+05    1.3734833E+03    3.4848955E+05
   -3.76   700.000    1.278E+02    3.4902557E+05   -1.3537384E+03   -1.0705044E+04    3.2270728E+05    1.3537380E+03    3.4902557E+05
   -3.75   700.000    1.267E+02    3.4985587E+05   -1.2967262E+03   -1.1733103E+04    3.2546532E+05    1.2967257E+03    3.4985587E+05
   -3.74   700.000    1.255E+02    3.5097490E+05   -1.1989948E+03   -1.2853416E+04    3.2845381E+05    1.1989944E+03    3.5097490E+05
   -3.73   700.000    1.244E+02    3.5236433E+05   -1.0585070E+03   -1.4053055E+04    3.3163452E+05    1.0585065E+03    3.5236433E+05
   -3.72   700.000    1.233E+02    3.5399696E+05   -8.7450191E+02   -1.5317659E+04    3.3496054E+05    8.7450142E+02    3.5399696E+05
   -3.71   700.000    1.222E+02    3.5584105E+05   -6.4730520E+02   -1.6630825E+04    3.3838147E+05    6.4730468E+02    3.5584105E+05
   -3.70   700.000    1.211E+02    3.5786474E+05   -3.7814175E+02   -1.7973482E+04    3.4184920E+05    3.7814118E+02    3.5786474E+05
   -3.69   700.000    1.200E+02    3.6003973E+05   -6.9000506E+01   -1.9323532E+04    3.4532309E+05    6.8999869E+01    3.6003973E+05
   -3.68   700.000    1.189E+02    3.6234380E+05    2.7741740E+02   -2.0656013E+04    3.4877402E+05   -2.7741811E+02    3.6234380E+05
   -3.67   700.000    1.178E+02    3.6476183E+05    6.5766221E+02   -2.1943944E+04    3.5218619E+05   -6.5766300E+02    3.6476183E+05
   -3.66   700.000    1.167E+02    3.6728518E+05    1.0674308E+03   -2.3159845E+04    3.5555662E+05   -1.0674317E+03    3.6728518E+05
   -3.65   700.000    1.156E+02    3.6990965E+05    1.5014308E+03   -2.4277763E+04    3.5889202E+05   -1.5014318E+03    3.6990966E+05
   -3.64   700.000    1.145E+02    3.7263262E+05    1.9532572E+03   -2.5275513E+04    3.6220410E+05   -1.9532583E+03    3.7263262E+05
   -3.63   700.000    1.135E+02    3.7544972E+05    2.4153211E+03   -2.6136783E+04    3.6550395E+05   -2.4153223E+03    3.7544972E+05
   -3.62   700.000    1.124E+02    3.7835202E+05    2.8788620E+03   -2.6852727E+04    3.6879696E+05   -2.8788633E+03    3.7835202E+05
   -3.61   700.000    1.113E+02    3.8132400E+05    3.3340664E+03   -2.7422793E+04    3.7207924E+05   -3.3340678E+03    3.8132400E+05
   -3.60   700.000    1.102E+02    3.8434291E+05    3.7703064E+03   -2.7854619E+04    3.7533652E+05   -3.7703079E+03    3.8434291E+05
   -3.59   700.000    1.091E+02    3.8737965E+05    4.1765073E+03   -2.8163022E+04    3.7854561E+05   -4.1765089E+03    3.8737965E+05
   -3.58   700.000    1.080E+02    3.9040114E+05    4.5416428E+03   -2.8368236E+04    3.8167835E+05   -4.5416445E+03    3.9040114E+05
   -3.57   700.000    1.068E+02    3.9337381E+05    4.8553381E+03   -2.8493686E+04    3.8470694E+05   -4.8553398E+03    3.9337381E+05
   -3.56   700.000    1.057E+02    3.9626775E+05    5.1085400E+03   -2.8563654E+04    3.8760976E+05   -5.1085418E+03    3.9626775E+05
   -3.55   700.000    1.046E+02    3.9906079E+05    5.2941838E+03   -2.8601177E+04    3.9037618E+05   -5.2941856E+03    3.9906080E+05
   -3.54   700.000    1.035E+02    4.0174172E+05    5.4077660E+03   -2.8626477E+04    3.9300943E+05   -5.4077679E+03    4.0174173E+05
   -3.53   700.000    1.024E+02    4.0431200E+05    5.4477294E+03   -2.8656072E+04    3.9552700E+05   -5.4477314E+03    4.0431200E+05
   -3.52   700.000    1.012E+02    4.0678551E+05    5.4155826E+03   -2.8702599E+04    3.9795840E+05   -5.4155845E+03    4.0678551E+05
   -3.51   700.000    1.001E+02    4.0918632E+05    5.3157190E+03   -2.8775210E+04    4.0034096E+05   -5.3157210E+03    4.0918633E+05
   -3.50   700.000    9.893E+01    4.1154477E+05    5.1549548E+03   -2.8880334E+04    4.0271436E+05   -5.1549568E+03    4.1154477E+05
   -3.49   700.000    9.777E+01    4.1389243E+05    4.9418533E+03   -2.9022512E+04    4.0511500E+05   -4.9418553E+03    4.1389243E+05
   -3.48   700.000    9.661E+01    4.1625705E+05    4.6859458E+03   -2.9205072E+04    4.0757107E+05   -4.6859479E+03    4.1625706E+05
   -3.47   700.000    9.544E+01    4.1865812E+05    4.3969618E+03   -2.9430457E+04    4.1009901E+05   -4.3969640E+03    4.1865813E+05
   -3.46   700.000    9.427E+01    4.2110391E+05    4.0841681E+03   -2.9700115E+04    4.1270186E+05   -4.0841703E+03    4.2110391E+05
   -3.45   700.000    9.308E+01    4.2359030E+05    3.7558785E+03   -3.0014000E+04    4.1536932E+05   -3.7558808E+03    4.2359030E+05
   -3.44   700.000    9.188E+01    4.2610150E+05    3.4191535E+03   -3.0369784E+04    4.1807972E+05   -3.4191559E+03    4.2610150E+05
   -3.43   700.000    9.067E+01    4.2861243E+05    3.0796715E+03   -3.0761973E+04    4.2080320E+05   -3.0796740E+03    4.2861244E+05
   -3.42   700.000    8.944E+01    4.3109230E+05    2.7417345E+03   -3.1181166E+04    4.2350590E+05   -2.7417371E+03    4.3109230E+05
   -3.41   700.000    8.819E+01    4.3350878E+05    2.4083655E+03   -3.1613649E+04    4.2615456E+05   -2.4083682E+03    4.3350877E+05
   -3.40   700.000    8.693E+01    4.3583247E+05    2.0814696E+03   -3.2041496E+04    4.2872104E+05   -2.0814725E+03    4.3583247E+05
   -3.39   700.000    8.564E+01    4.3804094E+05    1.7620475E+03   -3.2443244E+04    4.3118640E+05   -1.7620505E+03    4.3804094E+05
   -3.38   700.000    8.434E+01    4.4012209E+05    1.4504648E+03   -3.2795076E+04    4.3354412E+05   -1.4504679E+03    4.4012209E+05
   -3.37   700.000    8.300E+01    4.4207656E+05    1.1467831E+03   -3.3072377E+04    4.3580193E+05   -1.1467864E+03    4.4207656E+05
   -3.36   700.000    8.164E+01    4.4391884E+05    8.5114591E+02   -3.3251384E+04    4.3798226E+05   -8.5114923E+02    4.4391884E+05
   -3.35   700.000    8.025E+01    4.4567699E+05    5.6418674E+02   -3.3310703E+04    4.4012080E+05   -5.6419015E+02    4.4567698E+05
   -3.34   700.000    7.882E+01    4.4739085E+05    2.8740650E+02   -3.3232445E+04    4.4226330E+05   -2.8740997E+02    4.4739084E+05
   -3.33   700.000    7.736E+01    4.4910873E+05    2.3448482E+01   -3.3002871E+04    4.4446064E+05   -2.3451990E+01    4.4910873E+05
   -3.32   700.000    7.587E+01    4.5088283E+05   -2.2379480E+02   -3.2612557E+04    4.4676267E+05    2.2379128E+02    4.5088283E+05
   -3.31   700.000    7.434E+01    4.5276372E+05   -4.4928735E+02   -3.2056197E+04    4.4921134E+05    4.4928385E+02    4.5276371E+05
   -3.30   700.000    7.277E+01    4.5479456E+05   -6.4717553E+02   -3.1332287E+04    4.5183410E+05    6.4717207E+02    4.5479456E+05
   -3.29   700.000    7.117E+01    4.5700575E+05   -8.1129830E+02   -3.0442902E+04    4.5463846E+05    8.1129493E+02    4.5700575E+05
   -3.28   700.000    6.953E+01    4.5941066E+05   -9.3580715E+02   -2.9393777E+04    4.5760852E+05    9.3580391E+02    4.5941066E+05
   -3.27   700.000    6.785E+01    4.6200318E+05   -1.0157933E+03   -2.8194740E+04    4.6070432E+05    1.0157903E+03    4.6200318E+05
   -3.26   700.000    6.614E+01    4.6475735E+05   -1.0478122E+03   -2.6860416E+04    4.6386394E+05    1.0478093E+03    4.6475735E+05
   -3.25   700.000    6.439E+01    4.6762906E+05   -1.0302092E+03   -2.5411001E+04    4.6700838E+05    1.0302066E+03    4.6762906E+05
   -3.24   700.000    6.262E+01    4.7055956E+05   -9.6319028E+02   -2.3872819E+04    4.7004828E+05    9.6318799E+02    4.7055956E+05
   -3.23   700.000    6.081E+01    4.7348018E+05   -8.4863206E+02   -2.2278407E+04    4.7289146E+05    8.4863010E+02    4.7348018E+05
   -3.22   700.000    5.899E+01    4.7631743E+05   -6.8968780E+02   -2.0665954E+04    4.7545020E+05    6.8968620E+02    4.7631742E+05
   -3.21   700.000    5.714E+01    4.7899783E+05   -4.9028822E+02   -1.9078062E+04    4.7764712E+05    4.9028699E+02    4.7899783E+05
   -3.20   700.000    5.527E+01    4.8145184E+05   -2.5465813E+02   -1.7559922E+04    4.7941901E+05    2.5465727E+02    4.8145184E+05
   -3.19   700.000    5.340E+01    4.8361646E+05    1.3043576E+01   -1.6157101E+04    4.8071851E+05   -1.3044072E+01    4.8361647E+05
   -3.18   700.000    5.153E+01    4.8543646E+05    3.0889397E+02   -1.4913179E+04    4.8151367E+05   -3.0889412E+02    4.8543646E+05
   -3.17   700.000    4.965E+01    4.8686426E+05    6.2917639E+02   -1.3867434E+04    4.8178598E+05   -6.2917624E+02    4.8686426E+05
   -3.16   700.000    4.779E+01    4.8785890E+05    9.7019716E+02   -1.3052761E+04    4.8152763E+05   -9.7019675E+02    4.8785890E+05
   -3.15   700.000    4.594E+01    4.8838457E+05    1.3280342E+03   -1.2493911E+04    4.8073859E+05   -1.3280335E+03    4.8838457E+05
   -3.14   700.000    4.412E+01    4.8840900E+05    1.6983180E+03   -1.2206130E+04    4.7942417E+05   -1.6983173E+03    4.8840900E+05
   -3.13   700.000    4.232E+01    4.8790231E+05    2.0761337E+03   -1.2194230E+04    4.7759347E+05   -2.0761329E+03    4.8790231E+05
   -3.12   700.000    4.057E+01    4.8683642E+05    2.4560955E+03   -1.2452132E+04    4.7525869E+05   -2.4560946E+03    4.8683641E+05
   -3.11   700.000    3.885E+01    4.8518506E+05    2.8326001E+03   -1.2962920E+04    4.7243520E+05   -2.8325993E+03    4.8518505E+05
   -3.10   700.000    3.718E+01    4.8292425E+05    3.2002114E+03   -1.3699454E+04    4.6914186E+05   -3.2002107E+03    4.8292425E+05
   -3.09   700.000    3.556E+01    4.8003300E+05    3.5540922E+03   -1.4625565E+04    4.6540120E+05   -3.5540916E+03    4.8003300E+05
   -3.08   700.000    3.400E+01    4.7649387E+05    3.8903811E+03   -1.5697826E+04    4.6123897E+05   -3.8903808E+03    4.7649387E+05
   -3.07   700.000    3.250E+01    4.7229355E+05    4.2064228E+03   -1.6867858E+04    4.5668299E+05   -4.2064227E+03    4.7229354E+05
   -3.06   700.000    3.106E+01    4.6742310E+05    4.5007958E+03   -1.8085038E+04    4.5176127E+05   -4.5007960E+03    4.6742310E+05
   -3.05   700.000    2.968E+01    4.6187845E+05    4.7731310E+03   -1.9299421E+04    4.4649995E+05   -4.7731315E+03    4.6187845E+05
   -3.04   700.000    2.836E+01    4.5566099E+05    5.0237634E+03   -2.0464623E+04    4.4092138E+05   -5.0237642E+03    4.5566098E+05
   -3.03   700.000    2.710E+01    4.4877875E+05    5.2532946E+03   -2.1540363E+04    4.3504292E+05   -5.2532958E+03    4.4877874E+05
   -3.02   700.000    2.590E+01    4.4124808E+05    5.4621579E+03   -2.2494397E+04    4.2887676E+05   -5.4621594E+03    4.4124808E+05
   -3.01   700.000    2.476E+01    4.3309582E+05    5.6502727E+03   -2.3303636E+04    4.2243100E+05   -5.6502744E+03    4.3309581E+05
   -3.00   700.000    2.368E+01    4.2436163E+05    5.8168541E+03   -2.3954373E+04    4.1571176E+05   -5.8168561E+03    4.2436163E+05
   -2.99   700.000    2.266E+01    4.1510030E+05    5.9604154E+03   -2.4441713E+04    4.0872632E+05   -5.9604175E+03    4.1510029E+05
   -2.98   700.000    2.169E+01    4.0538340E+05    6.0789671E+03   -2.4768404E+04    4.0148679E+05   -6.0789695E+03    4.0538339E+05
   -2.97   700.000    2.077E+01    3.9530019E+05    6.1703848E+03   -2.4943363E+04    3.9401382E+05   -6.1703874E+03    3.9530018E+05
   -2.96   700.000    1.990E+01    3.8495715E+05    6.2328831E+03   -2.4980158E+04    3.8633987E+05   -6.2328857E+03    3.8495714E+05
   -2.95   700.000    1.908E+01    3.7447606E+05    6.2655128E+03   -2.4895655E+04    3.7851148E+05   -6.2655155E+03    3.7447605E+05
   -2.94   700.000    1.831E+01    3.6399050E+05    6.2685863E+03   -2.4708911E+04    3.7058998E+05   -6.2685890E+03    3.6399050E+05
   -2.93   700.000    1.757E+01    3.5364080E+05    6.2439420E+03   -2.4440331E+04    3.6265043E+05   -6.2439447E+03    3.5364079E+05
   -2.92   700.000    1.688E+01    3.4356780E+05    6.1949897E+03   -2.4111035E+04    3.5477877E+05   -6.1949924E+03    3.4356779E+05
   -2.91   700.000    1.622E+01    3.3390594E+05    6.1265124E+03   -2.3742369E+04    3.4706748E+05   -6.1265151E+03    3.3390594E+05
   -2.90   700.000    1.560E+01    3.2477633E+05    6.0442480E+03   -2.3355530E+04    3.3961032E+05   -6.0442505E+03    3.2477632E+05
   -2.89   700.000    1.501E+01    3.1628042E+05    5.9543101E+03   -2.2971260E+04    3.3249685E+05   -5.9543125E+03    3.1628041E+05
   -2.88   700.000    1.445E+01    3.0849515E+05    5.8625324E+03   -2.2609605E+04    3.2580736E+05   -5.8625347E+03    3.0849514E+05
   -2.87   700.000    1.393E+01    3.0146988E+05    5.7738286E+03   -2.2289685E+04    3.1960891E+05   -5.7738308E+03    3.0146987E+05
   -2.86   700.000    1.343E+01    2.9522558E+05    5.6916512E+03   -2.2029433E+04    3.1395272E+05   -5.6916532E+03    2.9522558E+05
   -2.85   700.000    1.295E+01    2.8975622E+05    5.6176154E+03   -2.1845213E+04    3.0887304E+05   -5.6176173E+03    2.8975621E+05
   -2.84   700.000    1.250E+01    2.8503219E+05    5.5513260E+03   -2.1751246E+04    3.0438742E+05   -5.5513278E+03    2.8503219E+05
   -2.83   700.000    1.208E+01    2.8100528E+05    5.4904175E+03   -2.1758782E+04    3.0049781E+05   -5.4904192E+03    2.8100528E+05
   -2.82   700.000    1.167E+01    2.7761438E+05    5.4307911E+03   -2.1875016E+04    2.9719228E+05   -5.4307927E+03    2.7761438E+05
   -2.81   700.000    1.128E+01    2.7479125E+05    5.3670084E+03   -2.2101800E+04    2.9444643E+05   -5.3670099E+03    2.7479124E+05
   -2.80   700.000    1.091E+01    2.7246528E+05    5.2927862E+03   -2.2434277E+04    2.9222449E+05   -5.2927878E+03    2.7246528E+05
   -2.79   700.000    1.056E+01    2.7056685E+05    5.2015280E+03   -2.2859638E+04    2.9047952E+05   -5.2015295E+03    2.7056685E+05
   -2.78   700.000    1.023E+01    2.6902850E+05    5.0868324E+03   -2.3356223E+04    2.8915286E+05   -5.0868341E+03    2.6902850E+05
   -2.77   700.000    9.904E+00    2.6778423E+05    4.9429310E+03   -2.3893244E+04    2.8817316E+05   -4.9429327E+03    2.6778423E+05
   -2.76   700.000    9.595E+00    2.6676699E+05    4.7650259E+03   -2.4431322E+04    2.8745513E+05   -4.7650278E+03    2.6676699E+05
   -2.75   700.000    9.297E+00    2.6590507E+05    4.5495254E+03   -2.4923993E+04    2.8689869E+05   -4.5495273E+03    2.6590507E+05
   -2.74   700.000    9.010E+00    2.6511826E+05    4.2941905E+03   -2.5320189E+04    2.8638895E+05   -4.2941926E+03    2.6511826E+05
   -2.73   700.000    8.733E+00    2.6431461E+05    3.9982246E+03   -2.5567583E+04    2.8579736E+05   -3.9982267E+03    2.6431461E+05
   -2.72   700.000    8.465E+00    2.6338863E+05    3.6623346E+03   -2.5616495E+04    2.8498431E+05   -3.6623367E+03    2.6338863E+05
   -2.71   700.000    8.205E+00    2.6222161E+05    3.2887823E+03   -2.5424005E+04    2.8380341E+05   -3.2887845E+03    2.6222161E+05
   -2.70   700.000    7.953E+00    2.6068414E+05    2.8814236E+03   -2.4957780E+04    2.8210713E+05   -2.8814259E+03    2.6068414E+05
   -2.69   700.000    7.708E+00    2.5864110E+05    2.4457113E+03   -2.4199188E+04    2.7975355E+05   -2.4457136E+03    2.5864110E+05
   -2.68   700.000    7.470E+00    2.5595837E+05    1.9886252E+03   -2.3145295E+04    2.7661368E+05   -1.9886273E+03    2.5595837E+05
   -2.67   700.000    7.239E+00    2.5251075E+05    1.5184984E+03   -2.1809476E+04    2.7257874E+05   -1.5185005E+03    2.5251076E+05
   -2.66   700.000    7.014E+00    2.4819027E+05    1.0447248E+03   -2.0220558E+04    2.6756663E+05   -1.0447268E+03    2.4819027E+05
   -2.65   700.000    6.795E+00    2.4291378E+05    5.7735741E+02   -1.8420572E+04    2.6152720E+05   -5.7735917E+02    2.4291379E+05
   -2.64   700.000    6.583E+00    2.3662942E+05    1.2662950E+02   -1.6461433E+04    2.5444589E+05   -1.2663107E+02    2.3662943E+05
   -2.63   700.000    6.378E+00    2.2932102E+05   -2.9755729E+02   -1.4400948E+04    2.4634558E+05    2.9755594E+02    2.2932102E+05
   -2.62   700.000    6.179E+00    2.2101040E+05   -6.8613583E+02   -1.2298688E+04    2.3728681E+05    6.8613470E+02    2.2101040E+05
   -2.61   700.000    5.987E+00    2.1175747E+05   -1.0313300E+03   -1.0212177E+04    2.2736622E+05    1.0313291E+03    2.1175747E+05
   -2.60   700.000    5.803E+00    2.0165799E+05   -1.3270371E+03   -8.1937446E+03    2.1671361E+05    1.3270365E+03    2.0165799E+05
   -2.59   700.000    5.625E+00    1.9083948E+05   -1.5691123E+03   -6.2882377E+03    2.0548744E+05    1.5691118E+03    1.9083948E+05
   -2.58   700.000    5.456E+00    1.7945545E+05   -1.7555359E+03   -4.5315909E+03    1.9386915E+05    1.7555357E+03    1.7945545E+05
   -2.57   700.000    5.293E+00    1.6767827E+05   -1.8864473E+03   -2.9501628E+03    1.8205631E+05    1.8864473E+03    1.6767827E+05
   -2.56   700.000    5.138E+00    1.5569129E+05   -1.9640360E+03   -1.5606969E+03    1.7025486E+05    1.9640362E+03    1.5569129E+05
   -2.55   700.000    4.990E+00    1.4368056E+05   -1.9922980E+03   -3.7077256E+02    1.5867093E+05    1.9922984E+03    1.4368057E+05
   -2.54   700.000    4.849E+00    1.3182691E+05   -1.9766774E+03    6.2035372E+02    1.4750257E+05    1.9766780E+03    1.3182691E+05
   -2.53   700.000    4.715E+00    1.2029866E+05   -1.9236303E+03    1.4205981E+03    1.3693201E+05    1.9236310E+03    1.2029866E+05
   -2.52   700.000    4.587E+00    1.0924578E+05   -1.8401585E+03    2.0436630E+03    1.2711890E+05    1.8401593E+03    1.0924578E+05
   -2.51   700.000    4.464E+00    9.8795555E+04   -1.7333594E+03    2.5075011E+03    1.1819473E+05    1.7333602E+03    9.8795555E+04
   -2.50   700.000    4.345E+00    8.9050043E+04   -1.6100328E+03    2.8327316E+03    1.1025881E+05    1.6100337E+03    8.9050043E+04
   -2.49   700.000    4.230E+00    8.0085270E+04   -1.4763745E+03    3.0411164E+03    1.0337573E+05    1.4763756E+03    8.0085271E+04
   -2.48   700.000    4.117E+00    7.1951975E+04   -1.3377690E+03    3.1541993E+03    9.7574207E+04    1.3377701E+03    7.1951975E+04
   -2.47   700.000    4.006E+00    6.4677578E+04   -1.1986811E+03    3.1921905E+03    9.2847329E+04    1.1986822E+03    6.4677578E+04
   -2.46   700.000    3.896E+00    5.8269018E+04   -1.0626349E+03    3.1731497E+03    8.9153881E+04    1.0626361E+03    5.8269018E+04
   -2.45   700.000    3.784E+00    5.2716057E+04   -9.3226204E+02    3.1124882E+03    8.6420875E+04    9.3226331E+02    5.2716058E+04
   -2.44   700.000    3.672E+00    4.7994713E+04   -8.0939552E+02    3.0227775E+03    8.4547176E+04    8.0939685E+02    4.7994713E+04
   -2.43   700.000    3.557E+00    4.4070521E+04   -6.9519099E+02    2.9138224E+03    8.3408305E+04    6.9519236E+02    4.4070521E+04
   -2.42   700.000    3.439E+00    4.0901435E+04   -5.9025589E+02    2.7929400E+03    8.2862416E+04    5.9025731E+02    4.0901435E+04
   -2.41   700.000    3.317E+00    3.8440233E+04   -4.9477441E+02    2.6653696E+03    8.2757393E+04    4.9477587E+02    3.8440233E+04
   -2.40   700.000    3.191E+00    3.6636404E+04   -4.0861943E+02    2.5347415E+03    8.2938804E+04    4.0862092E+02    3.6636405E+04
   -2.39   700.000    3.061E+00    3.5437571E+04   -3.3144734E+02    2.4035351E+03    8.3258311E+04    3.3144885E+02    3.5437572E+04
   -2.38   700.000    2.926E+00    3.4790555E+04   -2.6277491E+02    2.2734726E+03    8.3581943E+04    2.6277643E+02    3.4790556E+04
   -2.37   700.000    2.786E+00    3.4642250E+04   -2.0203948E+02    2.1458128E+03    8.3797523E+04    2.0204100E+02    3.4642252E+04
   -2.36   700.000    2.642E+00    3.4940506E+04   -1.4864490E+02    2.0215310E+03    8.3820606E+04    1.4864639E+02    3.4940508E+04
   -2.35   700.000    2.494E+00    3.5635190E+04   -1.0199586E+02    1.9013911E+03    8.3598377E+04    1.0199732E+02    3.5635192E+04
   -2.34   700.000    2.343E+00    3.6679577E+04   -6.1522757E+01    1.7859341E+03    8.3111240E+04    6.1524159E+01    3.6679579E+04
   -2.33   700.000    2.190E+00    3.8032135E+04   -2.6698445E+01    1.6754193E+03    8.2372104E+04    2.6699776E+01    3.8032138E+04
   -2.32   700.000    2.035E+00    3.9658677E+04    2.9521876E+00    1.5697557E+03    8.1423655E+04   -2.9509443E+00    3.9658679E+04
   -2.31   700.000    1.879E+00    4.1534731E+04    2.7849468E+01    1.4684613E+03    8.0334131E+04   -2.7848330E+01    4.1534735E+04
   -2.30   700.000    1.724E+00    4.3647924E+04    4.8362366E+01    1.3706711E+03    7.9192208E+04   -4.8361350E+01    4.3647927E+04
   -2.29   700.000    1.570E+00    4.6000043E+04    6.4817044E+01    1.2752038E+03    7.8101589E+04   -6.4816167E+01    4.6000047E+04
   -2.28   700.000    1.418E+00    4.8608519E+04    7.7508879E+01    1.1806792E+03    7.7175807E+04   -7.7508156E+01    4.8608523E+04
   -2.27   700.000    1.269E+00    5.1507019E+04    8.6715750E+01    1.0856672E+03    7.6533569E+04   -8.6715197E+01    5.1507024E+04
   -2.26   700.000    1.124E+00    5.4745015E+04    9.2710248E+01    9.8884247E+02    7.6294792E+04   -9.2709877E+01    5.4745021E+04
   -2.25   700.000    9.838E-01    5.8386255E+04    9.5768687E+01    8.8912293E+02    7.6577350E+04   -9.5768509E+01    5.8386262E+04
   -2.24   700.000    8.485E-01    6.2506243E+04    9.6175544E+01    7.8577359E+02    7.7494442E+04   -9.6175566E+01    6.2506250E+04
   -2.23   700.000    7.186E-01    6.7188941E+04    9.4222929E+01    6.7846899E+02    7.9152451E+04   -9.4223157E+01    6.7188949E+04
   -2.22   700.000    5.940E-01    7.2522996E+04    9.0205741E+01    5.6731427E+02    8.1649194E+04   -9.0206176E+01    7.2523005E+04
   -2.21   700.000    4.747E-01    7.8597848E+04    8.4413979E+01    4.5283039E+02    8.5072472E+04   -8.4414620E+01    7.8597858E+04
   -2.20   700.000    3.606E-01    8.5500034E+04    7.7124120E+01    3.3590994E+02    8.9498912E+04   -7.7124963E+01    8.5500045E+04
   -2.19   700.000    2.512E-01    9.3309973E+04    6.8591454E+01    2.1774857E+02    9.4993084E+04   -6.8592492E+01    9.3309985E+04
   -2.18   700.000    1.461E-01    1.0209941E+05    5.9044849E+01    9.9754513E+01    1.0160692E+05   -5.9046076E+01    1.0209942E+05
   -2.17   700.000    4.465E-02    1.1192961E+05    4.8684804E+01   -1.6561044E+01    1.0937946E+05   -4.8686211E+01    1.1192962E+05
   -2.16   700.000   -5.369E-02    1.2285030E+05    3.7684936E+01   -1.2970726E+02    1.1833688E+05   -3.7686518E+01    1.2285031E+05
   -2.15   700.000   -1.496E-01    1.3489930E+05    2.6196514E+01   -2.3833955E+02    1.2849292E+05   -2.6198270E+01    1.3489932E+05
   -2.14   700.000   -2.437E-01    1.4810273E+05    1.4355275E+01   -3.4137212E+02    1.3984953E+05   -1.4357210E+01    1.4810275E+05
   -2.13   700.000   -3.366E-01    1.6247556E+05    2.2896366E+00   -4.3806047E+02    1.5239790E+05   -2.2917609E+00    1.6247558E+05
   -2.12   700.000   -4.290E-01    1.7802255E+05   -9.8705264E+00   -5.2804306E+02    1.6611971E+05    9.8681934E+00    1.7802257E+05
   -2.11   700.000   -5.214E-01    1.9473913E+05   -2.1985187E+01   -6.1134314E+02    1.8098877E+05    2.1982617E+01    1.9473915E+05
   -2.10   700.000   -6.144E-01    2.1261231E+05   -3.3896044E+01   -6.8834541E+02    1.9697269E+05    3.3893199E+01    2.1261233E+05
   -2.09   700.000   -7.084E-01    2.3162133E+05   -4.5419390E+01   -7.5977147E+02    2.1403478E+05    4.5416223E+01    2.3162136E+05
   -2.08   700.000   -8.038E-01    2.5173804E+05   -5.6340575E+01   -8.2667796E+02    2.3213572E+05    5.6337034E+01    2.5173807E+05
   -2.07   700.000   -9.011E-01    2.7292693E+05   -6.6411127E+01   -8.9049093E+02    2.5123479E+05    6.6407152E+01    2.7292696E+05
   -2.06   700.000   -1.001E+00    2.9514489E+05   -7.5350307E+01   -9.5307268E+02    2.7129044E+05    7.5345835E+01    2.9514492E+05
   -2.05   700.000   -1.103E+00    3.1834078E+05   -8.2853627E+01   -1.0167994E+03    2.9225988E+05    8.2848597E+01    3.1834082E+05
   -2.04   700.000   -1.207E+00    3.4245503E+05   -8.8611148E+01   -1.0846173E+03    3.1409763E+05    8.8605503E+01    3.4245507E+05
   -2.03   700.000   -1.315E+00    3.6741939E+05   -9.2337649E+01   -1.1600426E+03    3.3675340E+05    9.2331339E+01    3.6741943E+05
   -2.02   700.000   -1.426E+00    3.9315715E+05   -9.3814438E+01   -1.2470799E+03    3.6016954E+05    9.3807427E+01    3.9315719E+05
   -2.01   700.000   -1.540E+00    4.1958398E+05   -9.2938586E+01   -1.3500438E+03    3.8427905E+05    9.2930852E+01    4.1958402E+05
   -2.00   700.000   -1.657E+00    4.4660948E+05   -8.9770249E+01   -1.4732861E+03    4.0900485E+05    8.9761789E+01    4.4660952E+05
   -1.99   700.000   -1.778E+00    4.7413937E+05   -8.4564143E+01   -1.6208435E+03    4.3426098E+05    8.4554976E+01    4.7413942E+05
   -1.98   700.000   -1.902E+00    5.0207815E+05   -7.7769094E+01   -1.7960401E+03    4.5995608E+05    7.7759257E+01    5.0207820E+05
   -1.97   700.000   -2.030E+00    5.3033167E+05   -6.9981950E+01   -2.0010927E+03    4.8599877E+05    6.9971504E+01    5.3033173E+05
   -1.96   700.000   -2.162E+00    5.5880920E+05   -6.1849666E+01   -2.2367830E+03    5.1230412E+05    6.1838689E+01    5.5880926E+05
   -1.95   700.000   -2.297E+00    5.8742433E+05   -5.3925143E+01   -2.5022639E+03    5.3879980E+05    5.3913729E+01    5.8742439E+05
   -1.94   700.000   -2.435E+00    6.1609451E+05   -4.6495852E+01   -2.7950524E+03    5.6543049E+05    4.6484108E+01    6.1609457E+05
   -1.93   700.000   -2.577E+00    6.4473907E+05   -3.9415897E+01   -3.1112285E+03    5.9215925E+05    3.9403936E+01    6.4473913E+05
   -1.92   700.000   -2.723E+00    6.7327632E+05   -3.1978811E+01   -3.4458094E+03    6.1896531E+05    3.1966751E+01    6.7327638E+05
   -1.91   700.000   -2.872E+00    7.0162049E+05   -2.2867831E+01   -3.7932193E+03    6.4583832E+05    2.2855787E+01    7.0162055E+05
   -1.90   700.000   -3.024E+00    7.2967969E+05   -1.0211689E+01   -4.1477468E+03    6.7277000E+05    1.0199770E+01    7.2967975E+05
   -1.89   700.000   -3.180E+00    7.5735615E+05    8.2423303E+00   -4.5038832E+03    6.9974487E+05   -8.2540267E+00    7.5735621E+05
   -1.88   700.000   -3.340E+00    7.8454950E+05    3.4848259E+01   -4.8564757E+03    7.2673178E+05   -3.4859650E+01    7.8454956E+05
   -1.87   700.000   -3.502E+00    8.1116343E+05    7.1708416E+01   -5.2006924E+03    7.5367799E+05   -7.1719436E+01    8.1116349E+05
   -1.86   700.000   -3.669E+00    8.3711494E+05    1.2030258E+02   -5.5318619E+03    7.8050716E+05   -1.2031317E+02    8.3711500E+05
   -1.85   700.000   -3.838E+00    8.6234473E+05    1.8116658E+02   -5.8452905E+03    8.0712155E+05   -1.8117672E+02    8.6234479E+05
   -1.84   700.000   -4.011E+00    8.8682651E+05    2.5368641E+02   -6.1361717E+03    8.3340827E+05   -2.5369606E+02    8.8682658E+05
   -1.83   700.000   -4.186E+00    9.1057299E+05    3.3605707E+02   -6.3996681E+03    8.5924831E+05   -3.3606622E+02    9.1057305E+05
   -1.82   700.000   -4.365E+00    9.3363652E+05    4.2542627E+02   -6.6311893E+03    8.8452666E+05   -4.2543492E+02    9.3363658E+05
   -1.81   700.000   -4.547E+00    9.5610353E+05    5.1820628E+02   -6.8268239E+03    9.0914179E+05   -5.1821442E+02    9.5610359E+05
   -1.80   700.000   -4.731E+00    9.7808279E+05    6.1050280E+02   -6.9838318E+03    9.3301268E+05   -6.1051041E+02    9.7808285E+05
   -1.79   700.000   -4.918E+00    9.9968897E+05    6.9858456E+02   -7.1010827E+03    9.5608246E+05   -6.9859165E+02    9.9968904E+05
   -1.78   700.000   -5.108E+00    1.0210238E+06    7.7930817E+02   -7.1793438E+03    9.7831808E+05   -7.7931472E+02    1.0210239E+06
   -1.77   700.000   -5.301E+00    1.0421579E+06    8.5042101E+02   -7.2213709E+03    9.9970628E+05   -8.5042704E+02    1.0421580E+06
   -1.76   700.000   -5.496E+00    1.0631160E+06    9.1069122E+02   -7.2318128E+03    1.0202468E+06   -9.1069672E+02    1.0631161E+06
   -1.75   700.000   -5.694E+00    1.0838692E+06    9.5985328E+02   -7.2169951E+03    1.0399440E+06   -9.5985826E+02    1.0838692E+06
   -1.74   700.000   -5.894E+00    1.1043339E+06    9.9840363E+02   -7.1846637E+03    1.0587986E+06   -9.9840812E+02    1.1043340E+06
   -1.73   700.000   -6.097E+00    1.1243810E+06    1.0273214E+03   -7.1437511E+03    1.0768009E+06   -1.0273254E+03    1.1243810E+06
   -1.72   700.000   -6.302E+00    1.1438513E+06    1.0478093E+03   -7.1041876E+03    1.0939272E+06   -1.0478129E+03    1.1438514E+06
   -1.71   700.000   -6.510E+00    1.1625776E+06    1.0611401E+03   -7.0767258E+03    1.1101398E+06   -1.0611433E+03    1.1625776E+06
   -1.70   700.000   -6.720E+00    1.1804075E+06    1.0686498E+03   -7.0727214E+03    1.1253901E+06   -1.0686527E+03    1.1804076E+06
   -1.69   700.000   -6.933E+00    1.1972263E+06    1.0718590E+03   -7.1038076E+03    1.1396261E+06   -1.0718616E+03    1.1972264E+06
   -1.68   700.000   -7.148E+00    1.2129725E+06    1.0726469E+03   -7.1814325E+03    1.1528001E+06   -1.0726491E+03    1.2129726E+06
   -1.67   700.000   -7.366E+00    1.2276468E+06    1.0733773E+03   -7.3162740E+03    1.1648772E+06   -1.0733791E+03    1.2276469E+06
   -1.66   700.000   -7.586E+00    1.2413103E+06    1.0768936E+03   -7.5175926E+03    1.1758418E+06   -1.0768951E+03    1.2413104E+06
   -1.65   700.000   -7.809E+00    1.2540743E+06    1.0863497E+03   -7.7926090E+03    1.1857020E+06   -1.0863507E+03    1.2540744E+06
   -1.64   700.000   -8.034E+00    1.2660837E+06    1.1049090E+03   -8.1459978E+03    1.1944904E+06   -1.1049094E+03    1.2660837E+06
   -1.63   700.000   -8.262E+00    1.2774969E+06    1.1353903E+03   -8.5795667E+03    1.2022630E+06   -1.1353901E+03    1.2774970E+06
   -1.62   700.000   -8.492E+00    1.2884677E+06    1.1799537E+03   -9.0921609E+03    1.2090967E+06   -1.1799527E+03    1.2884678E+06
   -1.61   700.000   -8.726E+00    1.2991307E+06    1.2398921E+03   -9.6798009E+03    1.2150860E+06   -1.2398902E+03    1.2991308E+06
   -1.60   700.000   -8.962E+00    1.3095947E+06    1.3155558E+03   -1.0336039E+04    1.2203424E+06   -1.3155529E+03    1.3095948E+06
   -1.59   700.000   -9.201E+00    1.3199422E+06    1.4063928E+03   -1.1052489E+04    1.2249939E+06   -1.4063889E+03    1.3199423E+06
   -1.58   700.000   -9.443E+00    1.3302351E+06    1.5110682E+03   -1.1819470E+04    1.2291869E+06   -1.5110632E+03    1.3302352E+06
   -1.57   700.000   -9.688E+00    1.3405237E+06    1.6276323E+03   -1.2626641E+04    1.2330893E+06   -1.6276262E+03    1.3405238E+06
   -1.56   700.000   -9.937E+00    1.3508555E+06    1.7537249E+03   -1.3463524E+04    1.2368917E+06   -1.7537178E+03    1.3508556E+06
   -1.55   700.000   -1.019E+01    1.3612814E+06    1.8868207E+03   -1.4319784E+04    1.2408069E+06   -1.8868125E+03    1.3612815E+06
   -1.54   700.000   -1.044E+01    1.3718585E+06    2.0245171E+03   -1.5185234E+04    1.2450654E+06   -2.0245080E+03    1.3718585E+06
   -1.53   700.000   -1.070E+01    1.3826482E+06    2.1648423E+03   -1.6049608E+04    1.2499065E+06   -2.1648322E+03    1.3826483E+06
   -1.52   700.000   -1.096E+01    1.3937131E+06    2.3065195E+03   -1.6902284E+04    1.2555668E+06   -2.3065086E+03    1.3937132E+06
   -1.51   700.000   -1.122E+01    1.4051123E+06    2.4490985E+03   -1.7732166E+04    1.2622664E+06   -2.4490868E+03    1.4051124E+06
   -1.50   700.000   -1.149E+01    1.4168994E+06    2.5928621E+03   -1.8527932E+04    1.2701969E+06   -2.5928497E+03    1.4168995E+06
   -1.49   700.000   -1.176E+01    1.4291238E+06    2.7384636E+03   -1.9278748E+04    1.2795117E+06   -2.7384506E+03    1.4291239E+06
   -1.48   700.000   -1.203E+01    1.4418343E+06    2.8863256E+03   -1.9975397E+04    1.2903202E+06   -2.8863120E+03    1.4418344E+06
   -1.47   700.000   -1.231E+01    1.4550849E+06    3.0359217E+03   -2.0611617E+04    1.3026861E+06   -3.0359075E+03    1.4550849E+06
   -1.46   700.000   -1.259E+01    1.4689392E+06    3.1851199E+03   -2.1185365E+04    1.3166290E+06   -3.1851052E+03    1.4689393E+06
   -1.45   700.000   -1.287E+01    1.4834722E+06    3.3297733E+03   -2.1699682E+04    1.3321264E+06   -3.3297580E+03    1.4834723E+06
   -1.44   700.000   -1.315E+01    1.4987661E+06    3.4636839E+03   -2.2162925E+04    1.3491172E+06   -3.4636680E+03    1.4987661E+06
   -1.43   700.000   -1.344E+01    1.5149012E+06    3.5789650E+03   -2.2588224E+04    1.3675042E+06   -3.5789485E+03    1.5149012E+06
   -1.42   700.000   -1.373E+01    1.5319426E+06    3.6667227E+03   -2.2992215E+04    1.3871580E+06   -3.6667056E+03    1.5319426E+06
   -1.41   700.000   -1.403E+01    1.5499243E+06    3.7179057E+03   -2.3393172E+04    1.4079219E+06   -3.7178880E+03    1.5499244E+06
   -1.40   700.000   -1.432E+01    1.5688351E+06    3.7241576E+03   -2.3808823E+04    1.4296190E+06   -3.7241393E+03    1.5688351E+06
   -1.39   700.000   -1.462E+01    1.5886072E+06    3.6785499E+03   -2.4254154E+04    1.4520624E+06   -3.6785311E+03    1.5886073E+06
   -1.38   700.000   -1.493E+01    1.6091123E+06    3.5761404E+03   -2.4739546E+04    1.4750664E+06   -3.5761213E+03    1.6091124E+06
   -1.37   700.000   -1.523E+01    1.6301636E+06    3.4143689E+03   -2.5269538E+04    1.4984582E+06   -3.4143495E+03    1.6301637E+06
   -1.36   700.000   -1.554E+01    1.6515264E+06    3.1933351E+03   -2.5842454E+04    1.5220870E+06   -3.1933156E+03    1.6515264E+06
   -1.35   700.000   -1.586E+01    1.6729346E+06    2.9159960E+03   -2.6450952E+04    1.5458294E+06   -2.9159764E+03    1.6729347E+06
   -1.34   700.000   -1.617E+01    1.6941143E+06    2.5882760E+03   -2.7083444E+04    1.5695893E+06   -2.5882565E+03    1.6941144E+06
   -1.33   700.000   -1.649E+01    1.7148101E+06    2.2190373E+03   -2.7726131E+04    1.5932934E+06   -2.2190180E+03    1.7148101E+06
   -1.32   700.000   -1.681E+01    1.7348144E+06    1.8198235E+03   -2.8365309E+04    1.6168827E+06   -1.8198046E+03    1.7348144E+06
   -1.31   700.000   -1.713E+01    1.7539967E+06    1.4043001E+03   -2.8989566E+04    1.6403032E+06   -1.4042816E+03    1.7539967E+06
   -1.30   700.000   -1.746E+01    1.7723289E+06    9.8736031E+02   -2.9591492E+04    1.6634970E+06   -9.8734224E+02    1.7723289E+06
   -1.29   700.000   -1.779E+01    1.7899033E+06    5.8393645E+02   -3.0168676E+04    1.6863979E+06   -5.8391889E+02    1.7899033E+06
   -1.28   700.000   -1.812E+01    1.8069396E+06    2.0762875E+02   -3.0723878E+04    1.7089311E+06   -2.0761171E+02    1.8069396E+06
   -1.27   700.000   -1.845E+01    1.8237769E+06   -1.3068636E+02   -3.1264427E+04    1.7310205E+06    1.3070288E+02    1.8237769E+06
   -1.26   700.000   -1.879E+01    1.8408502E+06   -4.2408394E+02   -3.1801033E+04    1.7526006E+06    4.2409995E+02    1.8408502E+06
   -1.25   700.000   -1.913E+01    1.8586518E+06   -6.7047878E+02   -3.2346263E+04    1.7736339E+06    6.7049428E+02    1.8586518E+06
   -1.24   700.000   -1.947E+01    1.8776823E+06   -8.7303062E+02   -3.2912972E+04    1.7941307E+06    8.7304564E+02    1.8776823E+06
   -1.23   700.000   -1.982E+01    1.8983979E+06   -1.0399755E+03   -3.3512929E+04    1.8141680E+06    1.0399901E+03    1.8983979E+06
   -1.22   700.000   -2.017E+01    1.9211611E+06   -1.1838620E+03   -3.4155802E+04    1.8339037E+06    1.1838762E+03    1.9211611E+06
   -1.21   700.000   -2.052E+01    1.9462033E+06   -1.3202549E+03   -3.4848544E+04    1.8535837E+06    1.3202687E+03    1.9462033E+06
   -1.20   700.000   -2.088E+01    1.9736034E+06   -1.4660541E+03   -3.5595130E+04    1.8735381E+06    1.4660675E+03    1.9736034E+06
   -1.19   700.000   -2.125E+01    2.0032859E+06   -1.6376474E+03   -3.6396532E+04    1.8941654E+06    1.6376607E+03    2.0032859E+06
   -1.18   700.000   -2.161E+01    2.0350368E+06   -1.8491540E+03   -3.7250800E+04    1.9159055E+06    1.8491672E+03    2.0350368E+06
   -1.17   700.000   -2.199E+01    2.0685324E+06   -2.1110068E+03   -3.8153164E+04    1.9392023E+06    2.1110200E+03    2.0685324E+06
   -1.16   700.000   -2.236E+01    2.1033759E+06   -2.4290696E+03   -3.9096157E+04    1.9644615E+06    2.4290829E+03    2.1033759E+06
   -1.15   700.000   -2.275E+01    2.1391345E+06   -2.8043934E+03   -4.0069835E+04    1.9920067E+06    2.8044069E+03    2.1391345E+06
   -1.14   700.000   -2.314E+01    2.1753725E+06   -3.2336016E+03   -4.1062227E+04    2.0220404E+06    3.2336154E+03    2.1753725E+06
   -1.13   700.000   -2.353E+01    2.2116772E+06   -3.7097792E+03   -4.2060150E+04    2.0546131E+06    3.7097934E+03    2.2116772E+06
   -1.12   700.000   -2.393E+01    2.2476774E+06   -4.2236525E+03   -4.3050465E+04    2.0896064E+06    4.2236670E+03    2.2476774E+06
   -1.11   700.000   -2.434E+01    2.2830549E+06   -4.7647932E+03   -4.4021776E+04    2.1267310E+06    4.7648081E+03    2.2830549E+06
   -1.10   700.000   -2.475E+01    2.3175515E+06   -5.3225989E+03   -4.4966419E+04    2.1655410E+06    5.3226141E+03    2.3175515E+06
   -1.09   700.000   -2.517E+01    2.3509719E+06   -5.8868669E+03   -4.5882533E+04    2.2054649E+06    5.8868822E+03    2.3509719E+06
   -1.08   700.000   -2.559E+01    2.3831850E+06   -6.4479011E+03   -4.6775887E+04    2.2458484E+06    6.4479165E+03    2.3831850E+06
   -1.07   700.000   -2.602E+01    2.4141218E+06   -6.9962237E+03   -4.7661167E+04    2.2860074E+06    6.9962389E+03    2.4141218E+06
   -1.06   700.000   -2.645E+01    2.4437718E+06   -7.5220738E+03   -4.8562432E+04    2.3252841E+06    7.5220886E+03    2.4437718E+06
   -1.05   700.000   -2.688E+01    2.4721754E+06   -8.0149361E+03   -4.9512557E+04    2.3631017E+06    8.0149503E+03    2.4721754E+06
   -1.04   700.000   -2.733E+01    2.4994142E+06   -8.4633259E+03   -5.0551609E+04    2.3990101E+06    8.4633392E+03    2.4994143E+06
   -1.03   700.000   -2.777E+01    2.5255987E+06   -8.8549787E+03   -5.1724305E+04    2.4327193E+06    8.8549909E+03    2.5255988E+06
   -1.02   700.000   -2.822E+01    2.5508553E+06   -9.1774707E+03   -5.3076836E+04    2.4641141E+06    9.1774815E+03    2.5508553E+06
   -1.01   700.000   -2.867E+01    2.5753131E+06   -9.4191686E+03   -5.4653493E+04    2.4932502E+06    9.4191778E+03    2.5753131E+06
   -1.00   700.000   -2.912E+01    2.5990932E+06   -9.5703061E+03   -5.6493528E+04    2.5203314E+06    9.5703135E+03    2.5990933E+06
   -0.99   700.000   -2.958E+01    2.6222990E+06   -9.6239356E+03   -5.8628597E+04    2.5456713E+06    9.6239410E+03    2.6222990E+06
   -0.98   700.000   -3.004E+01    2.6450088E+06   -9.5765135E+03   -6.1080971E+04    2.5696452E+06    9.5765168E+03    2.6450088E+06
   -0.97   700.000   -3.049E+01    2.6672711E+06   -9.4279471E+03   -6.3862496E+04    2.5926379E+06    9.4279481E+03    2.6672711E+06
   -0.96   700.000   -3.095E+01    2.6891006E+06   -9.1810483E+03   -6.6974206E+04    2.6149959E+06    9.1810469E+03    2.6891006E+06
   -0.95   700.000   -3.141E+01    2.7104763E+06   -8.8404806E+03   -7.0406376E+04    2.6369897E+06    8.8404769E+03    2.7104764E+06
   -0.94   700.000   -3.187E+01    2.7313418E+06   -8.4114193E+03   -7.4138891E+04    2.6587906E+06    8.4114132E+03    2.7313419E+06
   -0.93   700.000   -3.233E+01    2.7516090E+06   -7.8982342E+03   -7.8141795E+04    2.6804646E+06    7.8982256E+03    2.7516090E+06
   -0.92   700.000   -3.280E+01    2.7711652E+06   -7.3035184E+03   -8.2375924E+04    2.7019836E+06    7.3035075E+03    2.7711653E+06
   -0.91   700.000   -3.326E+01    2.7898862E+06   -6.6277093E+03   -8.6793508E+04    2.7232482E+06    6.6276961E+03    2.7898863E+06
   -0.90   700.000   -3.372E+01    2.8076521E+06   -5.8693982E+03   -9.1338585E+04    2.7441203E+06    5.8693827E+03    2.8076521E+06
   -0.89   700.000   -3.418E+01    2.8243671E+06   -5.0262461E+03   -9.5947105E+04    2.7644567E+06    5.0262284E+03    2.8243672E+06
   -0.88   700.000   -3.463E+01    2.8399806E+06   -4.0962766E+03   -1.0054670E+05    2.7841414E+06    4.0962568E+03    2.8399807E+06
   -0.87   700.000   -3.509E+01    2.8545052E+06   -3.0792458E+03   -1.0505636E+05    2.8031101E+06    3.0792239E+03    2.8545053E+06
   -0.86   700.000   -3.555E+01    2.8680301E+06   -1.9778230E+03   -1.0938634E+05    2.8213667E+06    1.9777989E+03    2.8680302E+06
   -0.85   700.000   -3.601E+01    2.8807260E+06   -7.9842129E+02   -1.1343903E+05    2.8389902E+06    7.9839503E+02    2.8807261E+06
   -0.84   700.000   -3.646E+01    2.8928391E+06    4.4834721E+02   -1.1711113E+05    2.8561309E+06   -4.4837568E+02    2.8928391E+06
   -0.83   700.000   -3.692E+01    2.9046747E+06    1.7475202E+03   -1.2029759E+05    2.8729994E+06   -1.7475509E+03    2.9046748E+06
   -0.82   700.000   -3.737E+01    2.9165713E+06    3.0798398E+03   -1.2289702E+05    2.8898465E+06   -3.0798729E+03    2.9165713E+06
   -0.81   700.000   -3.783E+01    2.9288680E+06    4.4219665E+03   -1.2481832E+05    2.9069382E+06   -4.4220020E+03    2.9288680E+06
   -0.80   700.000   -3.828E+01    2.9418715E+06    5.7468942E+03   -1.2598753E+05    2.9245264E+06   -5.7469321E+03    2.9418715E+06
   -0.79   700.000   -3.873E+01    2.9558267E+06    7.0246798E+03   -1.2635426E+05    2.9428203E+06   -7.0247202E+03    2.9558268E+06
   -0.78   700.000   -3.918E+01    2.9708959E+06    8.2236060E+03   -1.2589672E+05    2.9619614E+06   -8.2236490E+03    2.9708959E+06
   -0.77   700.000   -3.963E+01    2.9871486E+06    9.3118117E+03   -1.2462488E+05    2.9820052E+06   -9.3118572E+03    2.9871486E+06
   -0.76   700.000   -4.008E+01    3.0045639E+06    1.0259279E+04   -1.2258131E+05    3.0029145E+06   -1.0259327E+04    3.0045640E+06
   -0.75   700.000   -4.052E+01    3.0230411E+06    1.1039912E+04   -1.1983946E+05    3.0245629E+06   -1.1039963E+04    3.0230411E+06
   -0.74   700.000   -4.097E+01    3.0424151E+06    1.1633355E+04   -1.1649936E+05    3.0467478E+06   -1.1633408E+04    3.0424152E+06
   -0.73   700.000   -4.141E+01    3.0624730E+06    1.2026199E+04   -1.1268105E+05    3.0692098E+06   -1.2026254E+04    3.0624731E+06
   -0.72   700.000   -4.185E+01    3.0829655E+06    1.2212390E+04   -1.0851583E+05    3.0916528E+06   -1.2212448E+04    3.0829655E+06
   -0.71   700.000   -4.229E+01    3.1036125E+06    1.2192841E+04   -1.0413633E+05    3.1137614E+06   -1.2192901E+04    3.1036125E+06
   -0.70   700.000   -4.273E+01    3.1241022E+06    1.1974451E+04   -9.9666079E+04    3.1352110E+06   -1.1974514E+04    3.1241022E+06
   -0.69   700.000   -4.317E+01    3.1440856E+06    1.1568895E+04   -9.5209997E+04    3.1556702E+06   -1.1568959E+04    3.1440856E+06
   -0.68   700.000   -4.361E+01    3.1631715E+06    1.0991497E+04   -9.0846953E+04    3.1747978E+06   -1.0991563E+04    3.1631715E+06
   -0.67   700.000   -4.404E+01    3.1809256E+06    1.0260436E+04   -8.6625604E+04    3.1922386E+06   -1.0260504E+04    3.1809257E+06
   -0.66   700.000   -4.448E+01    3.1968790E+06    9.3963122E+03   -8.2564256E+04    3.2076217E+06   -9.3963821E+03    3.1968791E+06
   -0.65   700.000   -4.491E+01    3.2105476E+06    8.4219610E+03   -7.8654834E+04    3.2205674E+06   -8.4220326E+03    3.2105476E+06
   -0.64   700.000   -4.535E+01    3.2214621E+06    7.3622766E+03   -7.4870423E+04    3.2307033E+06   -7.3623497E+03    3.2214621E+06
   -0.63   700.000   -4.578E+01    3.2292060E+06    6.2438195E+03   -7.1175130E+04    3.2376885E+06   -6.2438941E+03    3.2292061E+06
   -0.62   700.000   -4.622E+01    3.2334538E+06    5.0940525E+03   -6.7534626E+04    3.2412432E+06   -5.0941285E+03    3.2334539E+06
   -0.61   700.000   -4.665E+01    3.2340040E+06    3.9402013E+03   -6.3925592E+04    3.2411757E+06   -3.9402785E+03    3.2340041E+06
   -0.60   700.000   -4.709E+01    3.2307993E+06    2.8078845E+03   -6.0342497E+04    3.2374015E+06   -2.8079629E+03    3.2307993E+06
   -0.59   700.000   -4.753E+01    3.2239311E+06    1.7197659E+03   -5.6800685E+04    3.2299494E+06   -1.7198452E+03    3.2239312E+06
   -0.58   700.000   -4.797E+01    3.2136264E+06    6.9450049E+02   -5.3335469E+04    3.2189526E+06   -6.9458047E+02    3.2136265E+06
   -0.57   700.000   -4.841E+01    3.2002197E+06   -2.5382368E+02   -4.9997681E+04    3.2046266E+06    2.5374323E+02    3.2002198E+06
   -0.56   700.000   -4.885E+01    3.1841162E+06   -1.1156908E+03   -4.6846789E+04    3.1872382E+06    1.1156101E+03    3.1841163E+06
   -0.55   700.000   -4.930E+01    3.1657514E+06   -1.8857085E+03   -4.3943025E+04    3.1670729E+06    1.8856281E+03    3.1657515E+06
   -0.54   700.000   -4.975E+01    3.1455545E+06   -2.5619257E+03   -4.1340052E+04    3.1444073E+06    2.5618459E+03    3.1455546E+06
   -0.53   700.000   -5.020E+01    3.1239202E+06   -3.1451745E+03   -3.9079375E+04    3.1194923E+06    3.1450957E+03    3.1239203E+06
   -0.52   700.000   -5.066E+01    3.1011901E+06   -3.6386550E+03   -3.7187275E+04    3.0925491E+06    3.6385777E+03    3.1011902E+06
   -0.51   700.000   -5.112E+01    3.0776450E+06   -4.0478726E+03   -3.5674438E+04    3.0637782E+06    4.0477973E+03    3.0776451E+06
   -0.50   700.000   -5.158E+01    3.0535063E+06   -4.3809159E+03   -3.4537896E+04    3.0333780E+06    4.3808430E+03    3.0535064E+06
   -0.49   700.000   -5.206E+01    3.0289435E+06   -4.6489561E+03   -3.3764523E+04    3.0015669E+06    4.6488859E+03    3.0289436E+06
   -0.48   700.000   -5.253E+01    3.0040862E+06   -4.8667796E+03   -3.3335102E+04    2.9686045E+06    4.8667124E+03    3.0040864E+06
   -0.47   700.000   -5.302E+01    2.9790396E+06   -5.0531399E+03   -3.3228044E+04    2.9348058E+06    5.0530759E+03    2.9790397E+06
   -0.46   700.000   -5.351E+01    2.9538997E+06   -5.2307270E+03   -3.3422108E+04    2.9005449E+06    5.2306663E+03    2.9538998E+06
   -0.45   700.000   -5.401E+01    2.9287700E+06   -5.4255955E+03   -3.3897869E+04    2.8662473E+06    5.4255380E+03    2.9287701E+06
   -0.44   700.000   -5.452E+01    2.9037735E+06   -5.6659685E+03   -3.4638055E+04    2.8323702E+06    5.6659141E+03    2.9037736E+06
   -0.43   700.000   -5.504E+01    2.8790609E+06   -5.9804315E+03   -3.5627180E+04    2.7993747E+06    5.9803799E+03    2.8790610E+06
   -0.42   700.000   -5.557E+01    2.8548104E+06   -6.3956382E+03   -3.6850950E+04    2.7676920E+06    6.3955892E+03    2.8548105E+06
   -0.41   700.000   -5.611E+01    2.8312188E+06   -6.9337555E+03   -3.8295879E+04    2.7376896E+06    6.9337086E+03    2.8312189E+06
   -0.40   700.000   -5.666E+01    2.8084844E+06   -7.6099550E+03   -3.9949304E+04    2.7096409E+06    7.6099098E+03    2.8084845E+06
   -0.39   700.000   -5.722E+01    2.7867842E+06   -8.4303058E+03   -4.1799800E+04    2.6837036E+06    8.4302619E+03    2.7867843E+06
   -0.38   700.000   -5.779E+01    2.7662497E+06   -9.3904224E+03   -4.3837841E+04    2.6599090E+06    9.3903794E+03    2.7662498E+06
   -0.37   700.000   -5.837E+01    2.7469467E+06   -1.0475158E+04   -4.6056422E+04    2.6381631E+06    1.0475116E+04    2.7469469E+06
   -0.36   700.000   -5.896E+01    2.7288630E+06   -1.1659501E+04   -4.8451404E+04    2.6182618E+06    1.1659458E+04    2.7288632E+06
   -0.35   700.000   -5.956E+01    2.7119068E+06   -1.2910637E+04   -5.1021319E+04    2.5999148E+06    1.2910595E+04    2.7119070E+06
   -0.34   700.000   -6.017E+01    2.6959164E+06   -1.4190940E+04   -5.3766465E+04    2.5827779E+06    1.4190898E+04    2.6959165E+06
   -0.33   700.000   -6.079E+01    2.6806785E+06   -1.5461457E+04   -5.6687208E+04    2.5664882E+06    1.5461414E+04    2.6806786E+06
   -0.32   700.000   -6.142E+01    2.6659517E+06   -1.6685410E+04   -5.9781572E+04    2.5506985E+06    1.6685367E+04    2.6659519E+06
   -0.31   700.000   -6.206E+01    2.6514919E+06   -1.7831268E+04   -6.3042362E+04    2.5351079E+06    1.7831224E+04    2.6514920E+06
   -0.30   700.000   -6.270E+01    2.6370743E+06   -1.8875059E+04   -6.6454233E+04    2.5194855E+06    1.8875015E+04    2.6370744E+06
   -0.29   700.000   -6.336E+01    2.6225122E+06   -1.9801811E+04   -6.9991233E+04    2.5036865E+06    1.9801767E+04    2.6225123E+06
   -0.28   700.000   -6.402E+01    2.6076704E+06   -2.0606098E+04   -7.3615378E+04    2.4876602E+06    2.0606054E+04    2.6076705E+06
   -0.27   700.000   -6.469E+01    2.5924739E+06   -2.1291765E+04   -7.7276705E+04    2.4714507E+06    2.1291722E+04    2.5924740E+06
   -0.26   700.000   -6.537E+01    2.5769124E+06   -2.1870936E+04   -8.0915131E+04    2.4551898E+06    2.1870894E+04    2.5769125E+06
   -0.25   700.000   -6.605E+01    2.5610415E+06   -2.2362368E+04   -8.4464151E+04    2.4390859E+06    2.2362327E+04    2.5610416E+06
   -0.24   700.000   -6.674E+01    2.5449802E+06   -2.2789276E+04   -8.7856120E+04    2.4234059E+06    2.2789237E+04    2.5449803E+06
   -0.23   700.000   -6.744E+01    2.5289045E+06   -2.3176782E+04   -9.1028524E+04    2.4084551E+06    2.3176746E+04    2.5289046E+06
   -0.22   700.000   -6.814E+01    2.5130376E+06   -2.3549213E+04   -9.3930334E+04    2.3945534E+06    2.3549179E+04    2.5130377E+06
   -0.21   700.000   -6.885E+01    2.4976360E+06   -2.3927533E+04   -9.6527436E+04    2.3820100E+06    2.3927502E+04    2.4976361E+06
   -0.20   700.000   -6.957E+01    2.4829743E+06   -2.4327201E+04   -9.8806162E+04    2.3710985E+06    2.4327173E+04    2.4829744E+06
   -0.19   700.000   -7.029E+01    2.4693275E+06   -2.4756708E+04   -1.0077428E+05    2.3620347E+06    2.4756684E+04    2.4693276E+06
   -0.18   700.000   -7.102E+01    2.4569551E+06   -2.5216949E+04   -1.0245924E+05    2.3549582E+06    2.5216928E+04    2.4569552E+06
   -0.17   700.000   -7.176E+01    2.4460861E+06   -2.5701463E+04   -1.0390396E+05    2.3499215E+06    2.5701445E+04    2.4460862E+06
   -0.16   700.000   -7.250E+01    2.4369078E+06   -2.6197478E+04   -1.0516077E+05    2.3468861E+06    2.6197463E+04    2.4369079E+06
   -0.15   700.000   -7.325E+01    2.4295560E+06   -2.6687545E+04   -1.0628448E+05    2.3457276E+06    2.6687532E+04    2.4295561E+06
   -0.14   700.000   -7.401E+01    2.4241086E+06   -2.7151521E+04   -1.0732534E+05    2.3462471E+06    2.7151511E+04    2.4241087E+06
   -0.13   700.000   -7.477E+01    2.4205813E+06   -2.7568642E+04   -1.0832284E+05    2.3481897E+06    2.7568634E+04    2.4205814E+06
   -0.12   700.000   -7.554E+01    2.4189256E+06   -2.7919437E+04   -1.0930101E+05    2.3512657E+06    2.7919430E+04    2.4189256E+06
   -0.11   700.000   -7.631E+01    2.4190307E+06   -2.8187331E+04   -1.1026563E+05    2.3551752E+06    2.8187326E+04    2.4190308E+06
   -0.10   700.000   -7.709E+01    2.4207295E+06   -2.8359852E+04   -1.1120386E+05    2.3596314E+06    2.8359847E+04    2.4207296E+06
   -0.09   700.000   -7.788E+01    2.4238099E+06   -2.8429400E+04   -1.1208584E+05    2.3643834E+06    2.8429396E+04    2.4238100E+06
   -0.08   700.000   -7.867E+01    2.4280311E+06   -2.8393603E+04   -1.1286826E+05    2.3692343E+06    2.8393600E+04    2.4280312E+06
   -0.07   700.000   -7.947E+01    2.4331438E+06   -2.8255245E+04   -1.1349904E+05    2.3740551E+06    2.8255241E+04    2.4331438E+06
   -0.06   700.000   -8.028E+01    2.4389109E+06   -2.8021793E+04   -1.1392245E+05    2.3787901E+06    2.8021789E+04    2.4389110E+06
   -0.05   700.000   -8.109E+01    2.4451268E+06   -2.7704541E+04   -1.1408409E+05    2.3834555E+06    2.7704538E+04    2.4451269E+06
   -0.04   700.000   -8.190E+01    2.4516291E+06   -2.7317421E+04   -1.1393526E+05    2.3881289E+06    2.7317417E+04    2.4516292E+06
   -0.03   700.000   -8.272E+01    2.4583041E+06   -2.6875580E+04   -1.1343662E+05    2.3929315E+06    2.6875576E+04    2.4583042E+06
   -0.02   700.000   -8.355E+01    2.4650816E+06   -2.6393892E+04   -1.1256112E+05    2.3980057E+06    2.6393889E+04    2.4650817E+06
   -0.01   700.000   -8.439E+01    2.4719231E+06   -2.5885572E+04   -1.1129640E+05    2.4034898E+06    2.5885569E+04    2.4719232E+06
    0.00   700.000   -8.523E+01    2.4788037E+06   -2.5361084E+04   -1.0964639E+05    2.4094927E+06    2.5361081E+04    2.4788038E+06
    0.01   700.000   -8.607E+01    2.4856920E+06   -2.4827482E+04   -1.0763224E+05    2.4160720E+06    2.4827480E+04    2.4856921E+06
    0.02   700.000   -8.692E+01    2.4925300E+06   -2.4288269E+04   -1.0529206E+05    2.4232162E+06    2.4288268E+04    2.4925301E+06
    0.03   700.000   -8.778E+01    2.4992162E+06   -2.3743737E+04   -1.0267922E+05    2.4308330E+06    2.3743737E+04    2.4992162E+06
    0.04   700.000   -8.865E+01    2.5055930E+06   -2.3191700E+04   -9.9859088E+04    2.4387426E+06    2.3191701E+04    2.5055930E+06
    0.05   700.000   -8.952E+01    2.5114398E+06   -2.2628428E+04   -9.6904226E+04    2.4466775E+06    2.2628431E+04    2.5114399E+06
    0.06   700.000   -9.039E+01    2.5164721E+06   -2.2049598E+04   -9.3888338E+04    2.4542881E+06    2.2049604E+04    2.5164721E+06
    0.07   700.000   -9.128E+01    2.5203466E+06   -2.1451083E+04   -9.0879649E+04    2.4611530E+06    2.1451091E+04    2.5203467E+06
    0.08   700.000   -9.216E+01    2.5226741E+06   -2.0829487E+04   -8.7934506E+04    2.4667961E+06    2.0829497E+04    2.5226742E+06
    0.09   700.000   -9.306E+01    2.5230375E+06   -2.0182427E+04   -8.5092128E+04    2.4707079E+06    2.0182440E+04    2.5230375E+06
    0.10   700.000   -9.396E+01    2.5210157E+06   -1.9508639E+04   -8.2371365E+04    2.4723725E+06    1.9508655E+04    2.5210158E+06
    0.11   700.000   -9.487E+01    2.5162111E+06   -1.8808022E+04   -7.9770028E+04    2.4712973E+06    1.8808040E+04    2.5162111E+06
    0.12   700.000   -9.578E+01    2.5082761E+06   -1.8081715E+04   -7.7266976E+04    2.4670435E+06    1.8081735E+04    2.5082762E+06
    0.13   700.000   -9.669E+01    2.4969382E+06   -1.7332245E+04   -7.4826617E+04    2.4592547E+06    1.7332268E+04    2.4969382E+06
    0.14   700.000   -9.761E+01    2.4820166E+06   -1.6563692E+04   -7.2405043E+04    2.4476810E+06    1.6563716E+04    2.4820167E+06
    0.15   700.000   -9.853E+01    2.4634319E+06   -1.5781747E+04   -6.9956763E+04    2.4321932E+06    1.5781773E+04    2.4634319E+06
    0.16   700.000   -9.945E+01    2.4412053E+06   -1.4993561E+04   -6.7440952E+04    2.4127880E+06    1.4993588E+04    2.4412053E+06
    0.17   700.000   -1.004E+02    2.4154493E+06   -1.4207301E+04   -6.4826370E+04    2.3895800E+06    1.4207330E+04    2.4154493E+06
    0.18   700.000   -1.013E+02    2.3863524E+06   -1.3431480E+04   -6.2094482E+04    2.3627850E+06    1.3431509E+04    2.3863525E+06
    0.19   700.000   -1.022E+02    2.3541603E+06   -1.2674185E+04   -5.9240680E+04    2.3326945E+06    1.2674214E+04    2.3541603E+06
    0.20   700.000   -1.031E+02    2.3191565E+06   -1.1942434E+04   -5.6273849E+04    2.2996470E+06    1.1942463E+04    2.3191566E+06
    0.21   700.000   -1.040E+02    2.2816471E+06   -1.1241817E+04   -5.3214693E+04    2.2639991E+06    1.1241846E+04    2.2816471E+06
    0.22   700.000   -1.050E+02    2.2419477E+06   -1.0576538E+04   -5.0093286E+04    2.2261020E+06    1.0576566E+04    2.2419477E+06
    0.23   700.000   -1.059E+02    2.2003768E+06   -9.9497987E+03   -4.6946304E+04    2.1862845E+06    9.9498263E+03    2.2003769E+06
    0.24   700.000   -1.067E+02    2.1572521E+06   -9.3644093E+03   -4.3814261E+04    2.1448461E+06    9.3644357E+03    2.1572521E+06
    0.25   700.000   -1.076E+02    2.1128896E+06   -8.8234150E+03   -4.0738972E+04    2.1020575E+06    8.8234402E+03    2.1128896E+06
    0.26   700.000   -1.085E+02    2.0676050E+06   -8.3305768E+03   -3.7761327E+04    2.0581694E+06    8.3306005E+03    2.0676051E+06
    0.27   700.000   -1.093E+02    2.0217148E+06   -7.8905854E+03   -3.4919382E+04    2.0134249E+06    7.8906075E+03    2.0217149E+06
    0.28   700.000   -1.102E+02    1.9755367E+06   -7.5089729E+03   -3.2246741E+04    1.9680725E+06    7.5089933E+03    1.9755367E+06
    0.29   700.000   -1.110E+02    1.9293891E+06   -7.1917438E+03   -2.9771249E+04    1.9223768E+06    7.1917625E+03    1.9293892E+06
    0.30   700.000   -1.118E+02    1.8835902E+06   -6.9447836E+03   -2.7514057E+04    1.8766242E+06    6.9448006E+03    1.8835902E+06
    0.31   700.000   -1.126E+02    1.8384541E+06   -6.7731200E+03   -2.5489156E+04    1.8311235E+06    6.7731353E+03    1.8384542E+06
    0.32   700.000   -1.134E+02    1.7942883E+06   -6.6801234E+03   -2.3703454E+04    1.7862004E+06    6.6801371E+03    1.7942884E+06
    0.33   700.000   -1.142E+02    1.7513891E+06   -6.6667478E+03   -2.2157375E+04    1.7421887E+06    6.6667600E+03    1.7513892E+06
    0.34   700.000   -1.149E+02    1.7100380E+06   -6.7309228E+03   -2.0845869E+04    1.6994199E+06    6.7309335E+03    1.7100380E+06
    0.35   700.000   -1.157E+02    1.6704979E+06   -6.8672066E+03   -1.9759628E+04    1.6582131E+06    6.8672158E+03    1.6704979E+06
    0.36   700.000   -1.164E+02    1.6330100E+06   -7.0667843E+03   -1.8886322E+04    1.6188664E+06    7.0667922E+03    1.6330100E+06
    0.37   700.000   -1.171E+02    1.5977911E+06   -7.3178479E+03   -1.8211719E+04    1.5816510E+06    7.3178546E+03    1.5977912E+06
    0.38   700.000   -1.178E+02    1.5650315E+06   -7.6063313E+03   -1.7720635E+04    1.5468079E+06    7.6063369E+03    1.5650316E+06
    0.39   700.000   -1.185E+02    1.5348934E+06   -7.9169138E+03   -1.7397772E+04    1.5145466E+06    7.9169184E+03    1.5348935E+06
    0.40   700.000   -1.191E+02    1.5075096E+06   -8.2341616E+03   -1.7228532E+04    1.4850454E+06    8.2341653E+03    1.5075096E+06
    0.41   700.000   -1.198E+02    1.4829827E+06   -8.5436549E+03   -1.7199822E+04    1.4584527E+06    8.5436579E+03    1.4829827E+06
    0.42   700.000   -1.204E+02    1.4613850E+06   -8.8329549E+03   -1.7300809E+04    1.4348882E+06    8.8329573E+03    1.4613851E+06
    0.43   700.000   -1.210E+02    1.4427586E+06   -9.0922920E+03   -1.7523458E+04    1.4144449E+06    9.0922941E+03    1.4427586E+06
    0.44   700.000   -1.216E+02    1.4271157E+06   -9.3149039E+03   -1.7862606E+04    1.3971902E+06    9.3149058E+03    1.4271158E+06
    0.45   700.000   -1.222E+02    1.4144406E+06   -9.4970033E+03   -1.8315401E+04    1.3831667E+06    9.4970052E+03    1.4144407E+06
    0.46   700.000   -1.228E+02    1.4046914E+06   -9.6374161E+03   -1.8880048E+04    1.3723930E+06    9.6374180E+03    1.4046915E+06
    0.47   700.000   -1.234E+02    1.3978021E+06   -9.7369707E+03   -1.9554011E+04    1.3648634E+06    9.7369728E+03    1.3978021E+06
    0.48   700.000   -1.240E+02    1.3936848E+06   -9.7977553E+03   -2.0332048E+04    1.3605460E+06    9.7977577E+03    1.3936848E+06
    0.49   700.000   -1.246E+02    1.3922305E+06   -9.8223647E+03   -2.1204557E+04    1.3593799E+06    9.8223674E+03    1.3922306E+06
    0.50   700.000   -1.251E+02    1.3933094E+06   -9.8132499E+03   -2.2156737E+04    1.3612705E+06    9.8132530E+03    1.3933095E+06
    0.51   700.000   -1.257E+02    1.3967688E+06   -9.7722596E+03   -2.3168916E+04    1.3660838E+06    9.7722630E+03    1.3967688E+06
    0.52   700.000   -1.263E+02    1.4024306E+06   -9.7004238E+03   -2.4218180E+04    1.3736405E+06    9.7004274E+03    1.4024306E+06
    0.53   700.000   -1.268E+02    1.4100883E+06   -9.5979898E+03   -2.5281170E+04    1.3837111E+06    9.5979937E+03    1.4100883E+06
    0.54   700.000   -1.274E+02    1.4195043E+06   -9.4646720E+03   -2.6337642E+04    1.3960135E+06    9.4646761E+03    1.4195043E+06
    0.55   700.000   -1.279E+02    1.4304094E+06   -9.3000307E+03   -2.7374253E+04    1.4102140E+06    9.3000349E+03    1.4304094E+06
    0.56   700.000   -1.285E+02    1.4425037E+06   -9.1038649E+03   -2.8387945E+04    1.4259321E+06    9.1038692E+03    1.4425037E+06
    0.57   700.000   -1.291E+02    1.4554619E+06   -8.8765012E+03   -2.9388319E+04    1.4427501E+06    8.8765054E+03    1.4554619E+06
    0.58   700.000   -1.296E+02    1.4689404E+06   -8.6188917E+03   -3.0398519E+04    1.4602248E+06    8.6188958E+03    1.4689405E+06
    0.59   700.000   -1.302E+02    1.4825888E+06   -8.3325035E+03   -3.1454322E+04    1.4779035E+06    8.3325074E+03    1.4825889E+06
    0.60   700.000   -1.308E+02    1.4960632E+06   -8.0190555E+03   -3.2601348E+04    1.4953415E+06    8.0190591E+03    1.4960632E+06
    0.61   700.000   -1.313E+02    1.5090415E+06   -7.6802232E+03   -3.3890571E+04    1.5121202E+06    7.6802263E+03    1.5090416E+06
    0.62   700.000   -1.319E+02    1.5212403E+06   -7.3174511E+03   -3.5372563E+04    1.5278674E+06    7.3174537E+03    1.5212403E+06
    0.63   700.000   -1.325E+02    1.5324294E+06   -6.9319858E+03   -3.7091166E+04    1.5422753E+06    6.9319877E+03    1.5324294E+06
    0.64   700.000   -1.331E+02    1.5424452E+06   -6.5251725E+03   -3.9077446E+04    1.5551178E+06    6.5251735E+03    1.5424453E+06
    0.65   700.000   -1.337E+02    1.5511995E+06   -6.0989724E+03   -4.1344813E+04    1.5662636E+06    6.0989724E+03    1.5511996E+06
    0.66   700.000   -1.343E+02    1.5586829E+06   -5.6565840E+03   -4.3886108E+04    1.5756837E+06    5.6565829E+03    1.5586829E+06
    0.67   700.000   -1.349E+02    1.5649622E+06   -5.2030112E+03   -4.6673118E+04    1.5834517E+06    5.2030089E+03    1.5649622E+06
    0.68   700.000   -1.355E+02    1.5701715E+06   -4.7454218E+03   -4.9658638E+04    1.5897355E+06    4.7454182E+03    1.5701716E+06
    0.69   700.000   -1.361E+02    1.5744972E+06   -4.2931863E+03   -5.2780733E+04    1.5947803E+06    4.2931814E+03    1.5744972E+06
    0.70   700.000   -1.368E+02    1.5781579E+06   -3.8575503E+03   -5.5968546E+04    1.5988836E+06    3.8575441E+03    1.5781579E+06
    0.71   700.000   -1.374E+02    1.5813810E+06   -3.4509642E+03   -5.9148778E+04    1.6023642E+06    3.4509568E+03    1.5813810E+06
    0.72   700.000   -1.381E+02    1.5843781E+06   -3.0861477E+03   -6.2251968E+04    1.6055284E+06    3.0861392E+03    1.5843781E+06
    0.73   700.000   -1.387E+02    1.5873206E+06   -2.7749971E+03   -6.5217785E+04    1.6086367E+06    2.7749877E+03    1.5873206E+06
    0.74   700.000   -1.394E+02    1.5903186E+06   -2.5274574E+03   -6.7998825E+04    1.6118752E+06    2.5274472E+03    1.5903186E+06
    0.75   700.000   -1.401E+02    1.5934055E+06   -2.3504807E+03   -7.0562611E+04    1.6153330E+06    2.3504699E+03    1.5934055E+06
    0.76   700.000   -1.408E+02    1.5965296E+06   -2.2471954E+03   -7.2891839E+04    1.6189909E+06    2.2471842E+03    1.5965297E+06
    0.77   700.000   -1.416E+02    1.5995540E+06   -2.2164121E+03   -7.4983083E+04    1.6227206E+06    2.2164007E+03    1.5995540E+06
    0.78   700.000   -1.423E+02    1.6022653E+06   -2.2525823E+03   -7.6844388E+04    1.6262946E+06    2.2525709E+03    1.6022654E+06
    0.79   700.000   -1.431E+02    1.6043909E+06   -2.3462950E+03   -7.8492236E+04    1.6294078E+06    2.3462837E+03    1.6043909E+06
    0.80   700.000   -1.439E+02    1.6056216E+06   -2.4853252E+03   -7.9948348E+04    1.6317056E+06    2.4853142E+03    1.6056216E+06
    0.81   700.000   -1.447E+02    1.6056389E+06   -2.6561480E+03   -8.1236673E+04    1.6328175E+06    2.6561374E+03    1.6056390E+06
    0.82   700.000   -1.456E+02    1.6041427E+06   -2.8457158E+03   -8.2380754E+04    1.6323913E+06    2.8457057E+03    1.6041428E+06
    0.83   700.000   -1.464E+02    1.6008765E+06   -3.0432038E+03   -8.3401490E+04    1.6301244E+06    3.0431944E+03    1.6008765E+06
    0.84   700.000   -1.473E+02    1.5956486E+06   -3.2413943E+03   -8.4315282E+04    1.6257881E+06    3.2413856E+03    1.5956486E+06
    0.85   700.000   -1.483E+02    1.5883461E+06   -3.4374205E+03   -8.5132499E+04    1.6192447E+06    3.4374126E+03    1.5883461E+06
    0.86   700.000   -1.492E+02    1.5789418E+06   -3.6327247E+03   -8.5856317E+04    1.6104541E+06    3.6327177E+03    1.5789418E+06
    0.87   700.000   -1.502E+02    1.5674933E+06   -3.8322586E+03   -8.6482044E+04    1.5994717E+06    3.8322526E+03    1.5674934E+06
    0.88   700.000   -1.512E+02    1.5541360E+06   -4.0431281E+03   -8.6997098E+04    1.5864389E+06    4.0431231E+03    1.5541361E+06
    0.89   700.000   -1.522E+02    1.5390711E+06   -4.2729896E+03   -8.7381780E+04    1.5715673E+06    4.2729857E+03    1.5390711E+06
    0.90   700.000   -1.532E+02    1.5225504E+06   -4.5285302E+03   -8.7610908E+04    1.5551205E+06    4.5285275E+03    1.5225505E+06
    0.91   700.000   -1.543E+02    1.5048621E+06   -4.8142959E+03   -8.7656231E+04    1.5373947E+06    4.8142943E+03    1.5048622E+06
    0.92   700.000   -1.554E+02    1.4863157E+06   -5.1320221E+03   -8.7489419E+04    1.5187016E+06    5.1320217E+03    1.4863158E+06
    0.93   700.000   -1.565E+02    1.4672305E+06   -5.4804960E+03   -8.7085320E+04    1.4993534E+06    5.4804966E+03    1.4672306E+06
    0.94   700.000   -1.576E+02    1.4479261E+06   -5.8558798E+03   -8.6425080E+04    1.4796520E+06    5.8558814E+03    1.4479261E+06
    0.95   700.000   -1.588E+02    1.4287143E+06   -6.2523676E+03   -8.5498737E+04    1.4598815E+06    6.2523700E+03    1.4287143E+06
    0.96   700.000   -1.599E+02    1.4098934E+06   -6.6630215E+03   -8.4306949E+04    1.4403040E+06    6.6630245E+03    1.4098935E+06
    0.97   700.000   -1.611E+02    1.3917425E+06   -7.0806401E+03   -8.2861642E+04    1.4211562E+06    7.0806436E+03    1.3917426E+06
    0.98   700.000   -1.623E+02    1.3745164E+06   -7.4985329E+03   -8.1185528E+04    1.4026491E+06    7.4985366E+03    1.3745165E+06
    0.99   700.000   -1.635E+02    1.3584416E+06   -7.9111011E+03   -7.9310598E+04    1.3849674E+06    7.9111048E+03    1.3584417E+06
    1.00   700.000   -1.647E+02    1.3437134E+06   -8.3141634E+03   -7.7275880E+04    1.3682699E+06    8.3141668E+03    1.3437135E+06
    1.01   700.000   -1.659E+02    1.3304948E+06   -8.7049983E+03   -7.5124800E+04    1.3526915E+06    8.7050012E+03    1.3304948E+06
    1.02   700.000   -1.670E+02    1.3189170E+06   -9.0821106E+03   -7.2902561E+04    1.3383462E+06    9.0821127E+03    1.3189170E+06
    1.03   700.000   -1.682E+02    1.3090829E+06   -9.4447613E+03   -7.0653910E+04    1.3253319E+06    9.4447626E+03    1.3090830E+06
    1.04   700.000   -1.694E+02    1.3010715E+06   -9.7923293E+03   -6.8421554E+04    1.3137360E+06    9.7923295E+03    1.3010716E+06
    1.05   700.000   -1.705E+02    1.2949428E+06   -1.0123597E+04   -6.6245345E+04    1.3036415E+06    1.0123596E+04    1.2949428E+06
    1.06   700.000   -1.716E+02    1.2907427E+06   -1.0436074E+04   -6.4162151E+04    1.2951324E+06    1.0436072E+04    1.2907427E+06
    1.07   700.000   -1.727E+02    1.2885064E+06   -1.0725480E+04   -6.2206203E+04    1.2882963E+06    1.0725477E+04    1.2885064E+06
    1.08   700.000   -1.738E+02    1.2882586E+06   -1.0985504E+04   -6.0409567E+04    1.2832238E+06    1.0985499E+04    1.2882587E+06
    1.09   700.000   -1.749E+02    1.2900118E+06   -1.1207926E+04   -5.8802402E+04    1.2800046E+06    1.1207920E+04    1.2900118E+06
    1.10   700.000   -1.759E+02    1.2937616E+06   -1.1383140E+04   -5.7412767E+04    1.2787194E+06    1.1383133E+04    1.2937616E+06
    1.11   700.000   -1.769E+02    1.2994810E+06   -1.1501021E+04   -5.6265862E+04    1.2794310E+06    1.1501013E+04    1.2994810E+06
    1.12   700.000   -1.779E+02    1.3071145E+06   -1.1552036E+04   -5.5382822E+04    1.2821744E+06    1.1552027E+04    1.3071145E+06
    1.13   700.000   -1.789E+02    1.3165744E+06   -1.1528405E+04   -5.4779268E+04    1.2869486E+06    1.1528395E+04    1.3165744E+06
    1.14   700.000   -1.798E+02    1.3277393E+06   -1.1425097E+04   -5.4463864E+04    1.2937112E+06    1.1425087E+04    1.3277393E+06
    1.15   700.000   -1.807E+02    1.3404564E+06   -1.1240488E+04   -5.4437042E+04    1.3023765E+06    1.1240478E+04    1.3404564E+06
    1.16   700.000   -1.816E+02    1.3545480E+06   -1.0976543E+04   -5.4689927E+04    1.3128171E+06    1.0976533E+04    1.3545480E+06
    1.17   700.000   -1.825E+02    1.3698205E+06   -1.0638519E+04   -5.5203379E+04    1.3248688E+06    1.0638510E+04    1.3698205E+06
    1.18   700.000   -1.834E+02    1.3860757E+06   -1.0234291E+04   -5.5947054E+04    1.3383373E+06    1.0234282E+04    1.3860757E+06
    1.19   700.000   -1.843E+02    1.4031230E+06   -9.7734819E+03   -5.6878534E+04    1.3530078E+06    9.7734736E+03    1.4031230E+06
    1.20   700.000   -1.851E+02    1.4207917E+06   -9.2666497E+03   -5.7942727E+04    1.3686557E+06    9.2666424E+03    1.4207917E+06
    1.21   700.000   -1.859E+02    1.4389423E+06   -8.7246997E+03   -5.9071930E+04    1.3850588E+06    8.7246935E+03    1.4389423E+06
    1.22   700.000   -1.868E+02    1.4574767E+06   -8.1586511E+03   -6.0187002E+04    1.4020113E+06    8.1586463E+03    1.4574767E+06
    1.23   700.000   -1.876E+02    1.4763464E+06   -7.5797290E+03   -6.1199956E+04    1.4193384E+06    7.5797257E+03    1.4763464E+06
    1.24   700.000   -1.884E+02    1.4955600E+06   -6.9996549E+03   -6.2018068E+04    1.4369124E+06    6.9996532E+03    1.4955600E+06
    1.25   700.000   -1.892E+02    1.5151879E+06   -6.4309433E+03   -6.2549286E+04    1.4546682E+06    6.4309435E+03    1.5151879E+06
    1.26   700.000   -1.900E+02    1.5353653E+06   -5.8870076E+03   -6.2708419E+04    1.4726169E+06    5.8870098E+03    1.5353653E+06
    1.27   700.000   -1.907E+02    1.5562903E+06   -5.3819328E+03   -6.2423443E+04    1.4908560E+06    5.3819371E+03    1.5562903E+06
    1.28   700.000   -1.915E+02    1.5782192E+06   -4.9298614E+03   -6.1641174E+04    1.5095740E+06    4.9298678E+03    1.5782192E+06
    1.29   700.000   -1.923E+02    1.6014555E+06   -4.5440276E+03   -6.0331626E+04    1.5290472E+06    4.5440362E+03    1.6014555E+06
    1.30   700.000   -1.931E+02    1.6263343E+06   -4.2355531E+03   -5.8490503E+04    1.5496284E+06    4.2355641E+03    1.6263343E+06
    1.31   700.000   -1.939E+02    1.6532029E+06   -4.0121623E+03   -5.6139507E+04    1.5717274E+06    4.0121756E+03    1.6532029E+06
    1.32   700.000   -1.946E+02    1.6823992E+06   -3.8769967E+03   -5.3324388E+04    1.5957853E+06    3.8770123E+03    1.6823992E+06
    1.33   700.000   -1.954E+02    1.7142301E+06   -3.8277084E+03   -5.0110985E+04    1.6222452E+06    3.8277263E+03    1.7142300E+06
    1.34   700.000   -1.962E+02    1.7489524E+06   -3.8559939E+03   -4.6579789E+04    1.6515224E+06    3.8560141E+03    1.7489524E+06
    1.35   700.000   -1.970E+02    1.7867586E+06   -3.9476963E+03   -4.2819816E+04    1.6839774E+06    3.9477189E+03    1.7867586E+06
    1.36   700.000   -1.978E+02    1.8277682E+06   -4.0835472E+03   -3.8922661E+04    1.7198953E+06    4.0835722E+03    1.8277681E+06
    1.37   700.000   -1.985E+02    1.8720254E+06   -4.2405320E+03   -3.4977539E+04    1.7594717E+06    4.2405594E+03    1.8720253E+06
    1.38   700.000   -1.993E+02    1.9195028E+06   -4.3937583E+03   -3.1067841E+04    1.8028065E+06    4.3937881E+03    1.9195028E+06
    1.39   700.000   -2.001E+02    1.9701102E+06   -4.5186001E+03   -2.7269333E+04    1.8499063E+06    4.5186322E+03    1.9701101E+06
    1.40   700.000   -2.009E+02    2.0237060E+06   -4.5928148E+03   -2.3649696E+04    1.9006919E+06    4.5928492E+03    2.0237059E+06
    1.41   700.000   -2.017E+02    2.0801118E+06   -4.5983207E+03   -2.0268805E+04    1.9550124E+06    4.5983573E+03    2.0801118E+06
    1.42   700.000   -2.025E+02    2.1391275E+06   -4.5223768E+03   -1.7178970E+04    2.0126625E+06    4.5224155E+03    2.1391275E+06
    1.43   700.000   -2.033E+02    2.2005463E+06   -4.3580265E+03   -1.4424509E+04    2.0734037E+06    4.3580671E+03    2.2005463E+06
    1.44   700.000   -2.041E+02    2.2641697E+06   -4.1038035E+03   -1.2040329E+04    2.1369873E+06    4.1038457E+03    2.2641697E+06
    1.45   700.000   -2.050E+02    2.3298211E+06   -3.7628259E+03   -1.0049671E+04    2.2031780E+06    3.7628695E+03    2.3298211E+06
    1.46   700.000   -2.058E+02    2.3973577E+06   -3.3414898E+03   -8.4616192E+03    2.2717770E+06    3.3415345E+03    2.3973577E+06
    1.47   700.000   -2.066E+02    2.4666791E+06   -2.8480065E+03   -7.2692978E+03    2.3426400E+06    2.8480519E+03    2.4666791E+06
    1.48   700.000   -2.074E+02    2.5377320E+06   -2.2910182E+03   -6.4497343E+03    2.4156892E+06    2.2910640E+03    2.5377320E+06
    1.49   700.000   -2.083E+02    2.6105098E+06   -1.6784879E+03   -5.9661057E+03    2.4909152E+06    1.6785338E+03    2.6105097E+06
    1.50   700.000   -2.091E+02    2.6850461E+06   -1.0170009E+03   -5.7725251E+03    2.5683676E+06    1.0170464E+03    2.6850460E+06
    1.51   700.000   -2.099E+02    2.7614035E+06   -3.1156156E+02   -5.8207994E+03    2.6481331E+06    3.1160649E+02    2.7614035E+06
    1.52   700.000   -2.108E+02    2.8396570E+06    4.3408228E+02   -6.0678704E+03    2.7303047E+06   -4.3403826E+02    2.8396569E+06
    1.53   700.000   -2.116E+02    2.9198740E+06    1.2166131E+03   -6.4821923E+03    2.8149439E+06   -1.2165703E+03    2.9198740E+06
    1.54   700.000   -2.125E+02    3.0020932E+06    2.0319055E+03   -7.0472711E+03    2.9020428E+06   -2.0318641E+03    3.0020931E+06
    1.55   700.000   -2.133E+02    3.0863027E+06    2.8735547E+03   -7.7611138E+03    2.9914924E+06   -2.8735150E+03    3.0863026E+06
    1.56   700.000   -2.142E+02    3.1724215E+06    3.7314495E+03   -8.6313221E+03    3.0830625E+06   -3.7314116E+03    3.1724214E+06
    1.57   700.000   -2.150E+02    3.2602845E+06    4.5907472E+03   -9.6667834E+03    3.1763985E+06   -4.5907114E+03    3.2602845E+06
    1.58   700.000   -2.158E+02    3.3496340E+06    5.4316273E+03   -1.0867990E+04    3.2710369E+06   -5.4315938E+03    3.3496339E+06
    1.59   700.000   -2.167E+02    3.4401186E+06    6.2301092E+03   -1.2218571E+04    3.3664374E+06   -6.2300782E+03    3.4401185E+06
    1.60   700.000   -2.175E+02    3.5313011E+06    6.9600167E+03   -1.3680422E+04    3.4620282E+06   -6.9599884E+03    3.5313010E+06
    1.61   700.000   -2.184E+02    3.6226749E+06    7.5958854E+03   -1.5193855E+04    3.5572568E+06   -7.5958599E+03    3.6226748E+06
    1.62   700.000   -2.192E+02    3.7136892E+06    8.1163213E+03   -1.6682799E+04    3.6516388E+06   -8.1162988E+03    3.7136891E+06
    1.63   700.000   -2.200E+02    3.8037811E+06    8.5071305E+03   -1.8063660E+04    3.7447978E+06   -8.5071111E+03    3.8037811E+06
    1.64   700.000   -2.209E+02    3.8924123E+06    8.7635166E+03   -1.9255521E+04    3.8364912E+06   -8.7635004E+03    3.8924123E+06
    1.65   700.000   -2.217E+02    3.9791075E+06    8.8908123E+03   -2.0189187E+04    3.9266195E+06   -8.8907994E+03    3.9791074E+06
    1.66   700.000   -2.225E+02    4.0634902E+06    8.9035285E+03   -2.0813099E+04    4.0152206E+06   -8.9035189E+03    4.0634902E+06
    1.67   700.000   -2.233E+02    4.1453133E+06    8.8228786E+03   -2.1095199E+04    4.1024491E+06   -8.8228723E+03    4.1453132E+06
    1.68   700.000   -2.241E+02    4.2244776E+06    8.6732742E+03   -2.1020938E+04    4.1885454E+06   -8.6732711E+03    4.2244776E+06
    1.69   700.000   -2.249E+02    4.3010384E+06    8.4785017E+03   -2.0588504E+04    4.2737951E+06   -8.4785018E+03    4.3010384E+06
    1.70   700.000   -2.257E+02    4.3751946E+06    8.2583357E+03   -1.9802740E+04    4.3584829E+06   -8.2583389E+03    4.3751946E+06
    1.71   700.000   -2.265E+02    4.4472623E+06    8.0262189E+03   -1.8669269E+04    4.4428419E+06   -8.0262251E+03    4.4472623E+06
    1.72   700.000   -2.273E+02    4.5176341E+06    7.7883759E+03   -1.7190040E+04    4.5270033E+06   -7.7883848E+03    4.5176341E+06
    1.73   700.000   -2.281E+02    4.5867286E+06    7.5443973E+03   -1.5361133E+04    4.6109514E+06   -7.5444088E+03    4.5867286E+06
    1.74   700.000   -2.289E+02    4.6549378E+06    7.2890174E+03   -1.3173310E+04    4.6944912E+06   -7.2890313E+03    4.6549378E+06
    1.75   700.000   -2.297E+02    4.7225778E+06    7.0145875E+03   -1.0615381E+04    4.7772348E+06   -7.0146035E+03    4.7225778E+06
    1.76   700.000   -2.304E+02    4.7898519E+06    6.7136676E+03   -7.6800808E+03    4.8586131E+06   -6.7136854E+03    4.7898519E+06
    1.77   700.000   -2.312E+02    4.8568275E+06    6.3812189E+03   -4.3716086E+03    4.9379152E+06   -6.3812382E+03    4.8568275E+06
    1.78   700.000   -2.320E+02    4.9234310E+06    6.0160347E+03   -7.1348155E+02    5.0143514E+06   -6.0160553E+03    4.9234310E+06
    1.79   700.000   -2.328E+02    4.9894565E+06    5.6212387E+03    3.2450619E+03    5.0871346E+06   -5.6212601E+03    4.9894565E+06
    1.80   700.000   -2.335E+02    5.0545871E+06    5.2038530E+03    7.4259932E+03    5.1555673E+06   -5.2038750E+03    5.0545872E+06
    1.81   700.000   -2.343E+02    5.1184241E+06    4.7735747E+03    1.1724303E+04    5.2191227E+06   -4.7735968E+03    5.1184242E+06
    1.82   700.000   -2.350E+02    5.1805205E+06    4.3409893E+03    1.6015400E+04    5.2775087E+06   -4.3410113E+03    5.1805206E+06
    1.83   700.000   -2.358E+02    5.2404192E+06    3.9155248E+03    2.0167608E+04    5.3307075E+06   -3.9155463E+03    5.2404192E+06
    1.84   700.000   -2.366E+02    5.2976927E+06    3.5034919E+03    2.4057915E+04    5.3789878E+06   -3.5035128E+03    5.2976927E+06
    1.85   700.000   -2.373E+02    5.3519862E+06    3.1065845E+03    2.7588121E+04    5.4228921E+06   -3.1066044E+03    5.3519862E+06
    1.86   700.000   -2.381E+02    5.4030594E+06    2.7211782E+03    3.0698044E+04    5.4632034E+06   -2.7211970E+03    5.4030595E+06
    1.87   700.000   -2.388E+02    5.4508257E+06    2.3386741E+03    3.3372906E+04    5.5008961E+06   -2.3386916E+03    5.4508258E+06
    1.88   700.000   -2.396E+02    5.4953816E+06    1.9469598E+03    3.5643214E+04    5.5370767E+06   -1.9469758E+03    5.4953816E+06
    1.89   700.000   -2.403E+02    5.5370218E+06    1.5328437E+03    3.7577171E+04    5.5729160E+06   -1.5328580E+03    5.5370218E+06
    1.90   700.000   -2.410E+02    5.5762351E+06    1.0850857E+03    3.9267357E+04    5.6095759E+06   -1.0850980E+03    5.5762352E+06
    1.91   700.000   -2.418E+02    5.6136781E+06    5.9747105E+02    4.0814689E+04    5.6481329E+06   -5.9748124E+02    5.6136782E+06
    1.92   700.000   -2.425E+02    5.6501269E+06    7.1291217E+01    4.2313104E+04    5.6895032E+06   -7.1299101E+01    5.6501270E+06
    1.93   700.000   -2.432E+02    5.6864123E+06   -4.8336070E+02    4.3837935E+04    5.7343768E+06    4.8335526E+02    5.6864123E+06
    1.94   700.000   -2.439E+02    5.7233427E+06   -1.0478950E+03    4.5439754E+04    5.7831666E+06    1.0478921E+03    5.7233427E+06
    1.95   700.000   -2.446E+02    5.7616247E+06   -1.5972582E+03    4.7143908E+04    5.8359799E+06    1.5972578E+03    5.7616248E+06
    1.96   700.000   -2.453E+02    5.8017890E+06   -2.1034584E+03    4.8954432E+04    5.8926170E+06    2.1034606E+03    5.8017891E+06
    1.97   700.000   -2.460E+02    5.8441293E+06   -2.5399736E+03    5.0860013E+04    5.9525945E+06    2.5399782E+03    5.8441293E+06
    1.98   700.000   -2.467E+02    5.8886606E+06   -2.8861409E+03    5.2839355E+04    6.0151898E+06    2.8861476E+03    5.8886607E+06
    1.99   700.000   -2.474E+02    5.9351012E+06   -3.1305210E+03    5.4863780E+04    6.0794976E+06    3.1305296E+03    5.9351013E+06
    2.00   700.000   -2.481E+02    5.9828783E+06   -3.2723932E+03    5.6895968E+04    6.1444898E+06    3.2724034E+03    5.9828784E+06
    2.01   700.000   -2.487E+02    6.0311578E+06   -3.3209670E+03    5.8885130E+04    6.2090695E+06    3.3209784E+03    6.0311578E+06
    2.02   700.000   -2.494E+02    6.0788948E+06   -3.2925040E+03    6.0760227E+04    6.2721152E+06    3.2925162E+03    6.0788948E+06
    2.03   700.000   -2.501E+02    6.1249007E+06   -3.2061260E+03    6.2423649E+04    6.3325117E+06    3.2061387E+03    6.1249008E+06
    2.04   700.000   -2.507E+02    6.1679203E+06   -3.0794510E+03    6.3748017E+04    6.3891705E+06    3.0794640E+03    6.1679204E+06
    2.05   700.000   -2.514E+02    6.2067127E+06   -2.9252095E+03    6.4578224E+04    6.4410423E+06    2.9252226E+03    6.2067128E+06
    2.06   700.000   -2.520E+02    6.2401294E+06   -2.7496443E+03    6.4739789E+04    6.4871273E+06    2.7496574E+03    6.2401295E+06
    2.07   700.000   -2.527E+02    6.2671820E+06   -2.5529349E+03    6.4053226E+04    6.5264861E+06    2.5529481E+03    6.2671820E+06
    2.08   700.000   -2.533E+02    6.2870942E+06   -2.3313015E+03    6.2352755E+04    6.5582543E+06    2.3313148E+03    6.2870942E+06
    2.09   700.000   -2.539E+02    6.2993354E+06   -2.0800333E+03    5.9506668E+04    6.5816600E+06    2.0800469E+03    6.2993354E+06
    2.10   700.000   -2.546E+02    6.3036322E+06   -1.7965481E+03    5.5436123E+04    6.5960445E+06    1.7965622E+03    6.3036323E+06
    2.11   700.000   -2.552E+02    6.2999606E+06   -1.4827136E+03    5.0129217E+04    6.6008831E+06    1.4827282E+03    6.2999606E+06
    2.12   700.000   -2.558E+02    6.2885207E+06   -1.1459546E+03    4.3647939E+04    6.5958050E+06    1.1459700E+03    6.2885208E+06
    2.13   700.000   -2.564E+02    6.2697002E+06   -7.9901799E+02    3.6126757E+04    6.5806105E+06    7.9903432E+02    6.2697002E+06
    2.14   700.000   -2.571E+02    6.2440318E+06   -4.5856167E+02    2.7763047E+04    6.5552847E+06    4.5857904E+02    6.2440319E+06
    2.15   700.000   -2.577E+02    6.2121522E+06   -1.4293640E+02    1.8801022E+04    6.5200078E+06    1.4295491E+02    6.2121522E+06
    2.16   700.000   -2.583E+02    6.1747669E+06    1.3037663E+02    9.5118311E+03    6.4751612E+06   -1.3035691E+02    6.1747669E+06
    2.17   700.000   -2.589E+02    6.1326251E+06    3.4720301E+02    1.7300451E+02    6.4213288E+06   -3.4718202E+02    6.1326251E+06
    2.18   700.000   -2.594E+02    6.0865058E+06    4.9857957E+02   -8.9497908E+03    6.3592941E+06   -4.9855726E+02    6.0865058E+06
    2.19   700.000   -2.600E+02    6.0372135E+06    5.8184159E+02   -1.7616567E+04    6.2900318E+06   -5.8181789E+02    6.0372135E+06
    2.20   700.000   -2.606E+02    5.9855815E+06    6.0077916E+02   -2.5621429E+04    6.2146955E+06   -6.0075404E+02    5.9855815E+06
    2.21   700.000   -2.612E+02    5.9324772E+06    5.6494481E+02   -3.2795771E+04    6.1346008E+06   -5.6491819E+02    5.9324772E+06
    2.22   700.000   -2.617E+02    5.8788058E+06    4.8836724E+02   -3.9007338E+04    6.0512040E+06   -4.8833909E+02    5.8788058E+06
    2.23   700.000   -2.623E+02    5.8255071E+06    3.8802641E+02   -4.4156578E+04    5.9660744E+06   -3.8799670E+02    5.8255071E+06
    2.24   700.000   -2.628E+02    5.7735416E+06    2.8243444E+02   -4.8171699E+04    5.8808582E+06   -2.8240316E+02    5.7735416E+06
    2.25   700.000   -2.634E+02    5.7238650E+06    1.9054988E+02   -5.1003564E+04    5.7972310E+06   -1.9051707E+02    5.7238650E+06
    2.26   700.000   -2.639E+02    5.6773898E+06    1.3107094E+02   -5.2621174E+04    5.7168373E+06   -1.3103668E+02    5.6773897E+06
    2.27   700.000   -2.644E+02    5.6349376E+06    1.2197849E+02   -5.3008366E+04    5.6412181E+06   -1.2194288E+02    5.6349375E+06
    2.28   700.000   -2.649E+02    5.5971877E+06    1.8010067E+02   -5.2162245E+04    5.5717314E+06   -1.8006387E+02    5.5971877E+06
    2.29   700.000   -2.655E+02    5.5646268E+06    3.2048638E+02   -5.0093847E+04    5.5094720E+06   -3.2044857E+02    5.5646268E+06
    2.30   700.000   -2.660E+02    5.5375068E+06    5.5549527E+02   -4.6831341E+04    5.4551999E+06   -5.5545667E+02    5.5375068E+06
    2.31   700.000   -2.665E+02    5.5158156E+06    8.9368308E+02   -4.2425586E+04    5.4092854E+06   -8.9364393E+02    5.5158156E+06
    2.32   700.000   -2.670E+02    5.4992640E+06    1.3387039E+03   -3.6957184E+04    5.3716773E+06   -1.3386644E+03    5.4992640E+06
    2.33   700.000   -2.675E+02    5.4872888E+06    1.8885020E+03   -3.0543435E+04    5.3418986E+06   -1.8884625E+03    5.4872888E+06
    2.34   700.000   -2.680E+02    5.4790730E+06    2.5350073E+03   -2.3343071E+04    5.3190703E+06   -2.5349679E+03    5.4790730E+06
    2.35   700.000   -2.685E+02    5.4735823E+06    3.2644098E+03   -1.5556705E+04    5.3019619E+06   -3.2643709E+03    5.4735824E+06
    2.36   700.000   -2.690E+02    5.4696166E+06    4.0579569E+03   -7.4214454E+03    5.2890682E+06   -4.0579186E+03    5.4696166E+06
    2.37   700.000   -2.695E+02    5.4658776E+06    4.8931370E+03    8.0079807E+02    5.2787081E+06   -4.8930995E+03    5.4658776E+06
    2.38   700.000   -2.700E+02    5.4610500E+06    5.7451303E+03    8.8405557E+03    5.2691404E+06   -5.7450939E+03    5.4610500E+06
    2.39   700.000   -2.704E+02    5.4538937E+06    6.5884719E+03    1.6441660E+04    5.2586909E+06   -6.5884367E+03    5.4538937E+06
    2.40   700.000   -2.709E+02    5.4433395E+06    7.3989272E+03    2.3382983E+04    5.2458803E+06   -7.3988934E+03    5.4433396E+06
    2.41   700.000   -2.714E+02    5.4285805E+06    8.1555728E+03    2.9497931E+04    5.2295409E+06   -8.1555406E+03    5.4285806E+06
    2.42   700.000   -2.719E+02    5.4091480E+06    8.8429842E+03    3.4688645E+04    5.2089111E+06   -8.8429537E+03    5.4091480E+06
    2.43   700.000   -2.724E+02    5.3849620E+06    9.4533046E+03    3.8932402E+04    5.1836968E+06   -9.4532759E+03    5.3849621E+06
    2.44   700.000   -2.728E+02    5.3563499E+06    9.9878597E+03    4.2278618E+04    5.1540912E+06   -9.9878329E+03    5.3563499E+06
    2.45   700.000   -2.733E+02    5.3240278E+06    1.0457949E+04    4.4836199E+04    5.1207549E+06   -1.0457924E+04    5.3240278E+06
    2.46   700.000   -2.738E+02    5.2890487E+06    1.0884507E+04    4.6752630E+04    5.0847560E+06   -1.0884484E+04    5.2890488E+06
    2.47   700.000   -2.743E+02    5.2527208E+06    1.1296496E+04    4.8187850E+04    5.0474809E+06   -1.1296475E+04    5.2527208E+06
    2.48   700.000   -2.747E+02    5.2165051E+06    1.1728053E+04    4.9287351E+04    5.0105253E+06   -1.1728034E+04    5.2165051E+06
    2.49   700.000   -2.752E+02    5.1819047E+06    1.2214678E+04    5.0159446E+04    4.9755748E+06   -1.2214660E+04    5.1819047E+06
    2.50   700.000   -2.757E+02    5.1503549E+06    1.2788850E+04    5.0861211E+04    4.9442888E+06   -1.2788834E+04    5.1503550E+06
    2.51   700.000   -2.762E+02    5.1231273E+06    1.3475637E+04    5.1395913E+04    4.9181957E+06   -1.3475622E+04    5.1231273E+06
    2.52   700.000   -2.766E+02    5.1012565E+06    1.4288837E+04    5.1722411E+04    4.8986096E+06   -1.4288823E+04    5.1012566E+06
    2.53   700.000   -2.771E+02    5.0854987E+06    1.5228217E+04    5.1774341E+04    4.8865752E+06   -1.5228205E+04    5.0854988E+06
    2.54   700.000   -2.775E+02    5.0763243E+06    1.6278271E+04    5.1484716E+04    4.8828469E+06   -1.6278259E+04    5.0763243E+06
    2.55   700.000   -2.780E+02    5.0739443E+06    1.7408778E+04    5.0810327E+04    4.8879009E+06   -1.7408767E+04    5.0739443E+06
    2.56   700.000   -2.785E+02    5.0783638E+06    1.8577263E+04    4.9750382E+04    4.9019761E+06   -1.8577252E+04    5.0783639E+06
    2.57   700.000   -2.789E+02    5.0894501E+06    1.9733192E+04    4.8355177E+04    4.9251335E+06   -1.9733181E+04    5.0894502E+06
    2.58   700.000   -2.794E+02    5.1070015E+06    2.0823515E+04    4.6722953E+04    4.9573192E+06   -2.0823505E+04    5.1070015E+06
    2.59   700.000   -2.798E+02    5.1308021E+06    2.1798889E+04    4.4985800E+04    4.9984155E+06   -2.1798880E+04    5.1308021E+06
    2.60   700.000   -2.803E+02    5.1606512E+06    2.2619760E+04    4.3287981E+04    5.0482670E+06   -2.2619752E+04    5.1606512E+06
    2.61   700.000   -2.807E+02    5.1963620E+06    2.3261407E+04    4.1761522E+04    5.1066731E+06   -2.3261399E+04    5.1963620E+06
    2.62   700.000   -2.812E+02    5.2377300E+06    2.3717139E+04    4.0504284E+04    5.1733471E+06   -2.3717131E+04    5.2377300E+06
    2.63   700.000   -2.816E+02    5.2844797E+06    2.3999115E+04    3.9564672E+04    5.2478492E+06   -2.3999108E+04    5.2844797E+06
    2.64   700.000   -2.821E+02    5.3362008E+06    2.4136640E+04    3.8935372E+04    5.3295061E+06   -2.4136634E+04    5.3362008E+06
    2.65   700.000   -2.825E+02    5.3922871E+06    2.4172231E+04    3.8556295E+04    5.4173318E+06   -2.4172225E+04    5.3922871E+06
    2.66   700.000   -2.830E+02    5.4518890E+06    2.4156116E+04    3.8325061E+04    5.5099643E+06   -2.4156111E+04    5.4518890E+06
    2.67   700.000   -2.835E+02    5.5138859E+06    2.4140068E+04    3.8112187E+04    5.6056285E+06   -2.4140064E+04    5.5138859E+06
    2.68   700.000   -2.839E+02    5.5768819E+06    2.4171457E+04    3.7777782E+04    5.7021311E+06   -2.4171453E+04    5.5768819E+06
    2.69   700.000   -2.844E+02    5.6392198E+06    2.4288248E+04    3.7187005E+04    5.7968908E+06   -2.4288245E+04    5.6392199E+06
    2.70   700.000   -2.848E+02    5.6990139E+06    2.4515411E+04    3.6222392E+04    5.8870016E+06   -2.4515409E+04    5.6990139E+06
    2.71   700.000   -2.853E+02    5.7541943E+06    2.4862865E+04    3.4792239E+04    5.9693288E+06   -2.4862864E+04    5.7541943E+06
    2.72   700.000   -2.858E+02    5.8025673E+06    2.5324916E+04    3.2835102E+04    6.0406345E+06   -2.5324917E+04    5.8025673E+06
    2.73   700.000   -2.863E+02    5.8418889E+06    2.5880984E+04    3.0321091E+04    6.0977290E+06   -2.5880985E+04    5.8418889E+06
    2.74   700.000   -2.867E+02    5.8699570E+06    2.6497401E+04    2.7250867E+04    6.1376420E+06   -2.6497403E+04    5.8699570E+06
    2.75   700.000   -2.872E+02    5.8847196E+06    2.7130099E+04    2.3653141E+04    6.1578026E+06   -2.7130102E+04    5.8847196E+06
    2.76   700.000   -2.877E+02    5.8843963E+06    2.7727991E+04    1.9581226E+04    6.1562141E+06   -2.7727995E+04    5.8843964E+06
    2.77   700.000   -2.882E+02    5.8676033E+06    2.8236869E+04    1.5108844E+04    6.1316058E+06   -2.8236875E+04    5.8676033E+06
    2.78   700.000   -2.886E+02    5.8334680E+06    2.8603581E+04    1.0325211E+04    6.0835427E+06   -2.8603587E+04    5.8334680E+06
    2.79   700.000   -2.891E+02    5.7817205E+06    2.8780168E+04    5.3293760E+03    6.0124790E+06   -2.8780174E+04    5.7817205E+06
    2.80   700.000   -2.896E+02    5.7127457E+06    2.8727622E+04    2.2398872E+02    5.9197440E+06   -2.8727629E+04    5.7127457E+06
    2.81   700.000   -2.901E+02    5.6275880E+06    2.8418897E+04   -4.8910735E+03    5.8074617E+06   -2.8418904E+04    5.6275880E+06
    2.82   700.000   -2.906E+02    5.5279045E+06    2.7840862E+04   -9.9244919E+03    5.6784116E+06   -2.7840870E+04    5.5279045E+06
    2.83   700.000   -2.911E+02    5.4158718E+06    2.6995031E+04   -1.4797908E+04    5.5358460E+06   -2.6995039E+04    5.4158718E+06
    2.84   700.000   -2.915E+02    5.2940562E+06    2.5897047E+04   -1.9448296E+04    5.3832882E+06   -2.5897056E+04    5.2940562E+06
    2.85   700.000   -2.920E+02    5.1652633E+06    2.4575094E+04   -2.3828067E+04    5.2243327E+06   -2.4575102E+04    5.1652633E+06
    2.86   700.000   -2.925E+02    5.0323847E+06    2.3067484E+04   -2.7903124E+04    5.0624700E+06   -2.3067493E+04    5.0323847E+06
    2.87   700.000   -2.930E+02    4.8982581E+06    2.1419767E+04   -3.1649516E+04    4.9009505E+06   -2.1419776E+04    4.8982581E+06
    2.88   700.000   -2.935E+02    4.7655532E+06    1.9681604E+04   -3.5049467E+04    4.7426946E+06   -1.9681613E+04    4.7655532E+06
    2.89   700.000   -2.940E+02    4.6366905E+06    1.7903603E+04   -3.8087476E+04    4.5902475E+06   -1.7903612E+04    4.6366905E+06
    2.90   700.000   -2.944E+02    4.5137940E+06    1.6134194E+04   -4.0746903E+04    4.4457707E+06   -1.6134203E+04    4.5137940E+06
    2.91   700.000   -2.949E+02    4.3986741E+06    1.4416629E+04   -4.3007177E+04    4.3110576E+06   -1.4416638E+04    4.3986742E+06
    2.92   700.000   -2.954E+02    4.2928345E+06    1.2786247E+04   -4.4841650E+04    4.1875612E+06   -1.2786256E+04    4.2928345E+06
    2.93   700.000   -2.959E+02    4.1974917E+06    1.1268274E+04   -4.6216165E+04    4.0764221E+06   -1.1268283E+04    4.1974917E+06
    2.94   700.000   -2.964E+02    4.1136012E+06    9.8764869E+03   -4.7088679E+04    3.9784921E+06   -9.8764963E+03    4.1136012E+06
    2.95   700.000   -2.969E+02    4.0418816E+06    8.6131089E+03   -4.7410456E+04    3.8943503E+06   -8.6131185E+03    4.0418817E+06
    2.96   700.000   -2.974E+02    3.9828340E+06    7.4701008E+03   -4.7129426E+04    3.8243132E+06   -7.4701107E+03    3.9828340E+06
    2.97   700.000   -2.978E+02    3.9367538E+06    6.4317705E+03   -4.6195987E+04    3.7684440E+06   -6.4317807E+03    3.9367538E+06
    2.98   700.000   -2.983E+02    3.9037386E+06    5.4783057E+03   -4.4570990E+04    3.7265638E+06   -5.4783162E+03    3.9037387E+06
    2.99   700.000   -2.988E+02    3.8836946E+06    4.5896076E+03   -4.2234884E+04    3.6982692E+06   -4.5896185E+03    3.8836946E+06
    3.00   700.000   -2.993E+02    3.8763446E+06    3.7487383E+03   -3.9196391E+04    3.6829574E+06   -3.7487497E+03    3.8763447E+06
    3.01   700.000   -2.998E+02    3.8812423E+06    2.9444115E+03   -3.5498822E+04    3.6798601E+06   -2.9444233E+03    3.8812424E+06
    3.02   700.000   -3.003E+02    3.8977912E+06    2.1722227E+03   -3.1222341E+04    3.6880829E+06   -2.1722349E+03    3.8977913E+06
    3.03   700.000   -3.008E+02    3.9252687E+06    1.4346303E+03   -2.6481186E+04    3.7066484E+06   -1.4346430E+03    3.9252688E+06
    3.04   700.000   -3.013E+02    3.9628503E+06    7.3996805E+02   -2.1415791E+04    3.7345370E+06   -7.3998134E+02    3.9628503E+06
    3.05   700.000   -3.018E+02    4.0096304E+06    1.0090757E+02   -1.6180709E+04    3.7707213E+06   -1.0092139E+02    4.0096305E+06
    3.06   700.000   -3.023E+02    4.0646368E+06   -4.6722494E+02   -1.0929948E+04    3.8141896E+06    4.6721061E+02    4.0646368E+06
    3.07   700.000   -3.028E+02    4.1268349E+06   -9.4801608E+02   -5.8017486E+03    3.8639539E+06    9.4800127E+02    4.1268349E+06
    3.08   700.000   -3.033E+02    4.1951258E+06   -1.3253532E+03   -9.0486979E+02    3.9190440E+06    1.3253380E+03    4.1951259E+06
    3.09   700.000   -3.038E+02    4.2683391E+06   -1.5847302E+03    3.6917660E+03    3.9784895E+06    1.5847146E+03    4.2683392E+06
    3.10   700.000   -3.043E+02    4.3452278E+06   -1.7146224E+03    7.9646379E+03    4.0412972E+06    1.7146065E+03    4.3452278E+06
    3.11   700.000   -3.049E+02    4.4244715E+06   -1.7080051E+03    1.1935528E+04    4.1064307E+06    1.7079889E+03    4.4244715E+06
    3.12   700.000   -3.054E+02    4.5046941E+06   -1.5639167E+03    1.5665561E+04    4.1728029E+06    1.5639002E+03    4.5046942E+06
    3.13   700.000   -3.059E+02    4.5844992E+06   -1.2887808E+03    1.9243896E+04    4.2392855E+06    1.2887642E+03    4.5844992E+06
    3.14   700.000   -3.064E+02    4.6625218E+06   -8.9710193E+02    2.2772348E+04    4.3047393E+06    8.9708501E+02    4.6625218E+06
    3.15   700.000   -3.069E+02    4.7374929E+06   -4.1119993E+02    2.6347809E+04    4.3680609E+06    4.1118274E+02    4.7374929E+06
    3.16   700.000   -3.074E+02    4.8083059E+06    1.4014061E+02    3.0044778E+04    4.4282398E+06   -1.4015817E+02    4.8083059E+06
    3.17   700.000   -3.079E+02    4.8740746E+06    7.2394462E+02    3.3900403E+04    4.4844145E+06   -7.2396264E+02    4.8740746E+06
    3.18   700.000   -3.084E+02    4.9341703E+06    1.3058285E+03    3.7904168E+04    4.5359177E+06   -1.3058471E+03    4.9341703E+06
    3.19   700.000   -3.089E+02    4.9882313E+06    1.8527680E+03    4.1993735E+04    4.5823012E+06   -1.8527874E+03    4.9882314E+06
    3.20   700.000   -3.094E+02    5.0361417E+06    2.3354056E+03    4.6057558E+04    4.6233383E+06   -2.3354258E+03    5.0361418E+06
    3.21   700.000   -3.098E+02    5.0779828E+06    2.7296617E+03    4.9943920E+04    4.6590026E+06   -2.7296828E+03    5.0779829E+06
    3.22   700.000   -3.103E+02    5.1139675E+06    3.0176519E+03    5.3475123E+04    4.6894299E+06   -3.0176741E+03    5.1139675E+06
    3.23   700.000   -3.108E+02    5.1443687E+06    3.1880626E+03    5.6464973E+04    4.7148700E+06   -3.1880858E+03    5.1443687E+06
    3.24   700.000   -3.113E+02    5.1694554E+06    3.2361521E+03    5.8737374E+04    4.7356372E+06   -3.2361764E+03    5.1694554E+06
    3.25   700.000   -3.117E+02    5.1894469E+06    3.1634464E+03    6.0143893E+04    4.7520682E+06   -3.1634717E+03    5.1894469E+06
    3.26   700.000   -3.122E+02    5.2044911E+06    2.9770717E+03    6.0578404E+04    4.7644938E+06   -2.9770979E+03    5.2044911E+06
    3.27   700.000   -3.127E+02    5.2146710E+06    2.6886094E+03    5.9987272E+04    4.7732277E+06   -2.6886363E+03    5.2146710E+06
    3.28   700.000   -3.131E+02    5.2200345E+06    2.3124179E+03    5.8374002E+04    4.7785745E+06   -2.3124452E+03    5.2200345E+06
    3.29   700.000   -3.135E+02    5.2206416E+06    1.8635348E+03    5.5797788E+04    4.7808521E+06   -1.8635624E+03    5.2206416E+06
    3.30   700.000   -3.140E+02    5.2166185E+06    1.3554735E+03    5.2366087E+04    4.7804237E+06   -1.3555010E+03    5.2166185E+06
    3.31   700.000   -3.144E+02    5.2082054E+06    7.9836542E+02    4.8222046E+04    4.7777275E+06   -7.9839263E+02    5.2082054E+06
    3.32   700.000   -3.148E+02    5.1957879E+06    1.9790094E+02    4.3528370E+04    4.7732966E+06   -1.9792757E+02    5.1957879E+06
    3.33   700.000   -3.152E+02    5.1799019E+06   -4.4464027E+02    3.8449699E+04    4.7677586E+06    4.4461445E+02    5.1799019E+06
    3.34   700.000   -3.157E+02    5.1612113E+06   -1.1312554E+03    3.3135803E+04    4.7618120E+06    1.1312307E+03    5.1612113E+06
    3.35   700.000   -3.161E+02    5.1404595E+06   -1.8652686E+03    2.7707737E+04    4.7561809E+06    1.8652451E+03    5.1404595E+06
    3.36   700.000   -3.164E+02    5.1184058E+06   -2.6490711E+03    2.2248644E+04    4.7515546E+06    2.6490489E+03    5.1184059E+06
    3.37   700.000   -3.168E+02    5.0957563E+06   -3.4821186E+03    1.6800278E+04    4.7485233E+06    3.4820979E+03    5.0957563E+06
    3.38   700.000   -3.172E+02    5.0731024E+06   -4.3596281E+03    1.1365652E+04    4.7475217E+06    4.3596089E+03    5.0731024E+06
    3.39   700.000   -3.176E+02    5.0508775E+06   -5.2721565E+03    5.9174440E+03    4.7487922E+06    5.2721389E+03    5.0508775E+06
    3.40   700.000   -3.180E+02    5.0293340E+06   -6.2059438E+03    4.1114078E+02    4.7523728E+06    6.2059277E+03    5.0293340E+06
    3.41   700.000   -3.183E+02    5.0085448E+06   -7.1436737E+03   -5.1988133E+03    4.7581121E+06    7.1436591E+03    5.0085448E+06
    3.42   700.000   -3.187E+02    4.9884229E+06   -8.0652368E+03   -1.0942113E+04    4.7657043E+06    8.0652235E+03    4.9884229E+06
    3.43   700.000   -3.190E+02    4.9687541E+06   -8.9481867E+03   -1.6817452E+04    4.7747362E+06    8.9481746E+03    4.9687541E+06
    3.44   700.000   -3.193E+02    4.9492364E+06   -9.7678255E+03   -2.2781572E+04    4.7847321E+06    9.7678143E+03    4.9492364E+06
    3.45   700.000   -3.197E+02    4.9295181E+06   -1.0497125E+04   -2.8744439E+04    4.7951852E+06    1.0497115E+04    4.9295181E+06
    3.46   700.000   -3.200E+02    4.9092323E+06   -1.1106892E+04   -3.4571651E+04    4.8055692E+06    1.1106882E+04    4.9092323E+06
    3.47   700.000   -3.203E+02    4.8880238E+06   -1.1566611E+04   -4.0094196E+04    4.8153265E+06    1.1566602E+04    4.8880238E+06
    3.48   700.000   -3.206E+02    4.8655682E+06   -1.1846288E+04   -4.5124532E+04    4.8238368E+06    1.1846279E+04    4.8655682E+06
    3.49   700.000   -3.209E+02    4.8415837E+06   -1.1919297E+04   -4.9476998E+04    4.8303767E+06    1.1919289E+04    4.8415837E+06
    3.50   700.000   -3.212E+02    4.8158349E+06   -1.1765921E+04   -5.2989761E+04    4.8340791E+06    1.1765913E+04    4.8158349E+06
    3.51   700.000   -3.215E+02    4.7881303E+06   -1.1376976E+04   -5.5545164E+04    4.8339093E+06    1.1376968E+04    4.7881303E+06
    3.52   700.000   -3.218E+02    4.7583139E+06   -1.0756754E+04   -5.7085452E+04    4.8286664E+06    1.0756746E+04    4.7583139E+06
    3.53   700.000   -3.221E+02    4.7262529E+06   -9.9245683E+03   -5.7621554E+04    4.8170216E+06    9.9245617E+03    4.7262529E+06
    3.54   700.000   -3.224E+02    4.6918265E+06   -8.9144473E+03   -5.7233756E+04    4.7975955E+06    8.9144416E+03    4.6918265E+06
    3.55   700.000   -3.227E+02    4.6549173E+06   -7.7728546E+03   -5.6064370E+04    4.7690718E+06    7.7728499E+03    4.6549173E+06
    3.56   700.000   -3.230E+02    4.6154103E+06   -6.5547356E+03   -5.4303842E+04    4.7303368E+06    6.5547320E+03    4.6154103E+06
    3.57   700.000   -3.232E+02    4.5732003E+06   -5.3184571E+03   -5.2172562E+04    4.6806252E+06    5.3184549E+03    4.5732003E+06
    3.58   700.000   -3.235E+02    4.5282060E+06   -4.1203640E+03   -4.9901064E+04    4.6196490E+06    4.1203633E+03    4.5282060E+06
    3.59   700.000   -3.238E+02    4.4803884E+06   -3.0096608E+03   -4.7711144E+04    4.5476861E+06    3.0096616E+03    4.4803884E+06
    3.60   700.000   -3.241E+02    4.4297683E+06   -2.0242032E+03   -4.5799876E+04    4.4656087E+06    2.0242055E+03    4.4297682E+06
    3.61   700.000   -3.244E+02    4.3764397E+06   -1.1875964E+03   -4.4327774E+04    4.3748434E+06    1.1876003E+03    4.3764397E+06
    3.62   700.000   -3.247E+02    4.3205761E+06   -5.0780522E+02   -4.3411626E+04    4.2772668E+06    5.0781060E+02    4.3205761E+06
    3.63   700.000   -3.249E+02    4.2624295E+06    2.2698934E+01   -4.3121945E+04    4.1750528E+06   -2.2692188E+01    4.2624294E+06
    3.64   700.000   -3.252E+02    4.2023225E+06    4.2537576E+02   -4.3484529E+04    4.0704958E+06   -4.2536781E+02    4.2023225E+06
    3.65   700.000   -3.255E+02    4.1406374E+06    7.3287545E+02   -4.4485276E+04    3.9658370E+06   -7.3286649E+02    4.1406374E+06
    3.66   700.000   -3.258E+02    4.0778021E+06    9.8544203E+02   -4.6077108E+04    3.8631176E+06   -9.8543231E+02    4.0778021E+06
    3.67   700.000   -3.261E+02    4.0142777E+06    1.2268347E+03   -4.8187663E+04    3.7640764E+06   -1.2268245E+03    4.0142776E+06
    3.68   700.000   -3.264E+02    3.9505483E+06    1.5001618E+03   -5.0726419E+04    3.6700977E+06   -1.5001515E+03    3.9505483E+06
    3.69   700.000   -3.267E+02    3.8871160E+06    1.8440132E+03   -5.3590190E+04    3.5822109E+06   -1.8440031E+03    3.8871160E+06
    3.70   700.000   -3.270E+02    3.8245009E+06    2.2892326E+03   -5.6666524E+04    3.5011296E+06   -2.2892231E+03    3.8245009E+06
    3.71   700.000   -3.273E+02    3.7632478E+06    2.8566040E+03   -5.9835258E+04    3.4273188E+06   -2.8565954E+03    3.7632478E+06
    3.72   700.000   -3.276E+02    3.7039374E+06    3.5556213E+03   -6.2969235E+04    3.3610741E+06   -3.5556140E+03    3.7039374E+06
    3.73   700.000   -3.279E+02    3.6471987E+06    4.3843946E+03   -6.5935579E+04    3.3025988E+06   -4.3843889E+03    3.6471987E+06
    3.74   700.000   -3.282E+02    3.5937184E+06    5.3306183E+03   -6.8598985E+04    3.2520659E+06   -5.3306147E+03    3.5937184E+06
    3.75   700.000   -3.285E+02    3.5442418E+06    6.3734228E+03   -7.0827921E+04    3.2096594E+06   -6.3734214E+03    3.5442418E+06
    3.76   700.000   -3.288E+02    3.4995600E+06    7.4858510E+03   -7.2503827E+04    3.1755895E+06   -7.4858522E+03    3.4995600E+06
    3.77   700.000   -3.291E+02    3.4604811E+06    8.6376635E+03   -7.3532354E+04    3.1500858E+06   -8.6376676E+03    3.4604811E+06
    3.78   700.000   -3.294E+02    3.4277863E+06    9.7981666E+03   -7.3854813E+04    3.1333723E+06   -9.7981737E+03    3.4277863E+06
    3.79   700.000   -3.297E+02    3.4021758E+06    1.0938776E+04   -7.3457509E+04    3.1256321E+06   -1.0938786E+04    3.4021758E+06
    3.80   700.000   -3.300E+02    3.3842117E+06    1.2035070E+04   -7.2376647E+04    3.1269708E+06   -1.2035083E+04    3.3842117E+06
    3.81   700.000   -3.303E+02    3.3742698E+06    1.3068159E+04   -7.0697104E+04    3.1373881E+06   -1.3068176E+04    3.3742697E+06
    3.82   700.000   -3.306E+02    3.3725083E+06    1.4025262E+04   -6.8544452E+04    3.1567613E+06   -1.4025282E+04    3.3725083E+06
    3.83   700.000   -3.309E+02    3.3788630E+06    1.4899481E+04   -6.6071023E+04    3.1848487E+06   -1.4899505E+04    3.3788630E+06
    3.84   700.000   -3.312E+02    3.3930719E+06    1.5688845E+04   -6.3438215E+04    3.2213123E+06   -1.5688872E+04    3.3930719E+06
    3.85   700.000   -3.315E+02    3.4147297E+06    1.6394720E+04   -6.0798331E+04    3.2657622E+06   -1.6394751E+04    3.4147297E+06
    3.86   700.000   -3.318E+02    3.4433680E+06    1.7019788E+04   -5.8279639E+04    3.3178171E+06   -1.7019821E+04    3.4433680E+06
    3.87   700.000   -3.321E+02    3.4785502E+06    1.7565749E+04   -5.5977739E+04    3.3771775E+06   -1.7565785E+04    3.4785502E+06
    3.88   700.000   -3.324E+02    3.5199712E+06    1.8031016E+04   -5.3954817E+04    3.4437019E+06   -1.8031054E+04    3.5199712E+06
    3.89   700.000   -3.327E+02    3.5675470E+06    1.8408626E+04   -5.2246246E+04    3.5174760E+06   -1.8408667E+04    3.5675470E+06
    3.90   700.000   -3.330E+02    3.6214829E+06    1.8684668E+04   -5.0871818E+04    3.5988635E+06   -1.8684710E+04    3.6214829E+06
    3.91   700.000   -3.333E+02    3.6823103E+06    1.8837454E+04   -4.9847540E+04    3.6885298E+06   -1.8837497E+04    3.6823103E+06
    3.92   700.000   -3.336E+02    3.7508876E+06    1.8837669E+04   -4.9193768E+04    3.7874319E+06   -1.8837713E+04    3.7508876E+06
    3.93   700.000   -3.339E+02    3.8283683E+06    1.8649599E+04   -4.8936753E+04    3.8967778E+06   -1.8649643E+04    3.8283682E+06
    3.94   700.000   -3.342E+02    3.9161406E+06    1.8233424E+04   -4.9102893E+04    4.0179567E+06   -1.8233468E+04    3.9161406E+06
    3.95   700.000   -3.346E+02    4.0157502E+06    1.7548449E+04   -4.9707475E+04    4.1524506E+06   -1.7548493E+04    4.0157501E+06
    3.96   700.000   -3.349E+02    4.1288127E+06    1.6557000E+04   -5.0741380E+04    4.3017345E+06   -1.6557044E+04    4.1288126E+06
    3.97   700.000   -3.352E+02    4.2569261E+06    1.5228631E+04   -5.2159816E+04    4.4671699E+06   -1.5228674E+04    4.2569260E+06
    3.98   700.000   -3.355E+02    4.4015838E+06    1.3544225E+04   -5.3876292E+04    4.6498945E+06   -1.3544267E+04    4.4015838E+06
    3.99   700.000   -3.359E+02    4.5640902E+06    1.1499549E+04   -5.5763409E+04    4.8507074E+06   -1.1499590E+04    4.5640902E+06
    4.00   700.000   -3.362E+02    4.7454759E+06    9.1078215E+03   -5.7660071E+04    5.0699477E+06   -9.1078627E+03    4.7454758E+06
    4.01   700.000   -3.365E+02    4.9464094E+06    6.4009847E+03   -5.9383275E+04    5.3073690E+06   -6.4010254E+03    4.9464093E+06
    4.02   700.000   -3.369E+02    5.1671062E+06    3.4294847E+03   -6.0741938E+04    5.5620158E+06   -3.4295251E+03    5.1671061E+06
    4.03   700.000   -3.372E+02    5.4072351E+06    2.6063048E+02   -6.1550495E+04    5.8321130E+06   -2.6067068E+02    5.4072350E+06
    4.04   700.000   -3.376E+02    5.6658282E+06   -3.0241979E+03   -6.1640813E+04    6.1149871E+06    3.0241577E+03    5.6658281E+06
    4.05   700.000   -3.379E+02    5.9412034E+06   -6.3330363E+03   -6.0872093E+04    6.4070388E+06    6.3329962E+03    5.9412033E+06
    4.06   700.000   -3.383E+02    6.2309092E+06   -9.5670244E+03   -5.9139215E+04    6.7037848E+06    9.5669842E+03    6.2309091E+06
    4.07   700.000   -3.386E+02    6.5317054E+06   -1.2623920E+04   -5.6380329E+04    6.9999840E+06    1.2623880E+04    6.5317053E+06
    4.08   700.000   -3.390E+02    6.8395887E+06   -1.5401337E+04   -5.2584137E+04    7.2898492E+06    1.5401296E+04    6.8395886E+06
    4.09   700.000   -3.394E+02    7.1498732E+06   -1.7799907E+04   -4.7796568E+04    7.5673375E+06    1.7799867E+04    7.1498732E+06
    4.10   700.000   -3.398E+02    7.4573280E+06   -1.9726833E+04   -4.2125604E+04    7.8264946E+06    1.9726792E+04    7.4573279E+06
    4.11   700.000   -3.401E+02    7.7563691E+06   -2.1100264E+04   -3.5742354E+04    8.0618216E+06    2.1100224E+04    7.7563690E+06
    4.12   700.000   -3.405E+02    8.0412965E+06   -2.1854713E+04   -2.8876400E+04    8.2686207E+06    2.1854674E+04    8.0412964E+06
    4.13   700.000   -3.409E+02    8.3065608E+06   -2.1947204E+04   -2.1804097E+04    8.4432818E+06    2.1947165E+04    8.3065608E+06
    4.14   700.000   -3.413E+02    8.5470383E+06   -2.1363327E+04   -1.4829806E+04    8.5834738E+06    2.1363289E+04    8.5470382E+06
    4.15   700.000   -3.417E+02    8.7582934E+06   -2.0121994E+04   -8.2616450E+03    8.6882228E+06    2.0121956E+04    8.7582933E+06
    4.16   700.000   -3.421E+02    8.9368075E+06   -1.8277619E+04   -2.3847452E+03    8.7578743E+06    1.8277583E+04    8.9368074E+06
    4.17   700.000   -3.425E+02    9.0801549E+06   -1.5918808E+04    2.5641231E+03    8.7939563E+06    1.5918772E+04    9.0801549E+06
    4.18   700.000   -3.429E+02    9.1871134E+06   -1.3163213E+04    6.4167665E+03    8.7989720E+06    1.3163178E+04    9.1871133E+06
    4.19   700.000   -3.433E+02    9.2577006E+06   -1.0149007E+04    9.0857042E+03    8.7761606E+06    1.0148973E+04    9.2577005E+06
    4.20   700.000   -3.437E+02    9.2931379E+06   -7.0240391E+03    1.0566816E+04    8.7292619E+06    7.0240066E+03    9.2931379E+06
    4.21   700.000   -3.441E+02    9.2957461E+06   -3.9341679E+03    1.0932792E+04    8.6623107E+06    3.9341362E+03    9.2957460E+06
    4.22   700.000   -3.444E+02    9.2687862E+06   -1.0123275E+03    1.0319140E+04    8.5794788E+06    1.0122967E+03    9.2687861E+06
    4.23   700.000   -3.448E+02    9.2162625E+06    1.6303556E+03    8.9053859E+03    8.4849609E+06   -1.6303857E+03    9.2162625E+06
    4.24   700.000   -3.452E+02    9.1427064E+06    3.9105481E+03    6.8944142E+03    8.3828980E+06   -3.9105777E+03    9.1427064E+06
    4.25   700.000   -3.456E+02    9.0529566E+06    5.7754837E+03    4.4925503E+03    8.2773177E+06   -5.7755129E+03    9.0529565E+06
    4.26   700.000   -3.460E+02    8.9519508E+06    7.2027021E+03    1.8923981E+03    8.1720781E+06   -7.2027309E+03    8.9519507E+06
    4.27   700.000   -3.464E+02    8.8445362E+06    8.1972640E+03   -7.4035582E+02    8.0707992E+06   -8.1972926E+03    8.8445362E+06
    4.28   700.000   -3.467E+02    8.7353026E+06    8.7871253E+03   -3.2757005E+03    7.9767811E+06   -8.7871536E+03    8.7353025E+06
    4.29   700.000   -3.471E+02    8.6284373E+06    9.0173758E+03   -5.6237872E+03    7.8929086E+06   -9.0174040E+03    8.6284373E+06
    4.30   700.000   -3.475E+02    8.5276029E+06    8.9440066E+03   -7.7357713E+03    7.8215539E+06   -8.9440347E+03    8.5276028E+06
    4.31   700.000   -3.479E+02    8.4358347E+06    8.6277962E+03   -9.6018905E+03    7.7644887E+06   -8.6278242E+03    8.4358347E+06
    4.32   700.000   -3.482E+02    8.3554626E+06    8.1288474E+03   -1.1247668E+04    7.7228176E+06   -8.1288754E+03    8.3554625E+06
    4.33   700.000   -3.486E+02    8.2880573E+06    7.5022335E+03   -1.2728924E+04    7.6969421E+06   -7.5022617E+03    8.2880572E+06
    4.34   700.000   -3.490E+02    8.2344088E+06    6.7950939E+03   -1.4125911E+04    7.6865609E+06   -6.7951223E+03    8.2344087E+06
    4.35   700.000   -3.493E+02    8.1945386E+06    6.0453302E+03   -1.5536465E+04    7.6907077E+06   -6.0453590E+03    8.1945386E+06
    4.36   700.000   -3.497E+02    8.1677500E+06    5.2817966E+03   -1.7067801E+04    7.7078235E+06   -5.2818260E+03    8.1677500E+06
    4.37   700.000   -3.501E+02    8.1527166E+06    4.5256049E+03   -1.8826563E+04    7.7358620E+06   -4.5256351E+03    8.1527166E+06
    4.38   700.000   -3.504E+02    8.1476063E+06    3.7919676E+03   -2.0907146E+04    7.7724182E+06   -3.7919988E+03    8.1476063E+06
    4.39   700.000   -3.508E+02    8.1502352E+06    3.0919451E+03   -2.3379049E+04    7.8148770E+06   -3.0919775E+03    8.1502352E+06
    4.40   700.000   -3.512E+02    8.1582416E+06    2.4335955E+03   -2.6274958E+04    7.8605684E+06   -2.4336293E+03    8.1582416E+06
    4.41   700.000   -3.516E+02    8.1692691E+06    1.8223035E+03   -2.9582005E+04    7.9069235E+06   -1.8223388E+03    8.1692690E+06
    4.42   700.000   -3.519E+02    8.1811431E+06    1.2604162E+03   -3.3238826E+04    7.9516177E+06   -1.2604532E+03    8.1811431E+06
    4.43   700.000   -3.523E+02    8.1920289E+06    7.4661737E+02   -3.7140385E+04    7.9926942E+06   -7.4665601E+02    8.1920289E+06
    4.44   700.000   -3.527E+02    8.2005548E+06    2.7561441E+02   -4.1150917E+04    8.0286588E+06   -2.7565477E+02    8.2005548E+06
    4.45   700.000   -3.531E+02    8.2058919E+06   -1.6136646E+02   -4.5123247E+04    8.0585422E+06    1.6132442E+02    8.2058919E+06
    4.46   700.000   -3.535E+02    8.2077833E+06   -5.7508111E+02   -4.8920670E+04    8.0819250E+06    5.7503746E+02    8.2077833E+06
    4.47   700.000   -3.539E+02    8.2065203E+06   -9.7598917E+02   -5.2436366E+04    8.0989259E+06    9.7594402E+02    8.2065203E+06
    4.48   700.000   -3.542E+02    8.2028713E+06   -1.3718040E+03   -5.5605550E+04    8.1101541E+06    1.3717575E+03    8.2028713E+06
    4.49   700.000   -3.546E+02    8.1979727E+06   -1.7656545E+03   -5.8407351E+04    8.1166281E+06    1.7656068E+03    8.1979727E+06
    4.50   700.000   -3.550E+02    8.1931946E+06   -2.1555170E+03   -6.0856314E+04    8.1196666E+06    2.1554684E+03    8.1931945E+06
    4.51   700.000   -3.554E+02    8.1899979E+06   -2.5351841E+03   -6.2986468E+04    8.1207601E+06    2.5351348E+03    8.1899979E+06
    4.52   700.000   -3.558E+02    8.1897992E+06   -2.8965254E+03   -6.4833050E+04    8.1214322E+06    2.8964756E+03    8.1897991E+06
    4.53   700.000   -3.562E+02    8.1938550E+06   -3.2323804E+03   -6.6417401E+04    8.1231047E+06    3.2323303E+03    8.1938550E+06
    4.54   700.000   -3.566E+02    8.2031772E+06   -3.5392426E+03   -6.7739136E+04    8.1269777E+06    3.5391925E+03    8.2031771E+06
    4.55   700.000   -3.571E+02    8.2184794E+06   -3.8190111E+03   -6.8777066E+04    8.1339367E+06    3.8189613E+03    8.2184794E+06
    4.56   700.000   -3.575E+02    8.2401543E+06   -4.0794009E+03   -6.9497534E+04    8.1444933E+06    4.0793517E+03    8.2401543E+06
    4.57   700.000   -3.579E+02    8.2682693E+06   -4.3330006E+03   -6.9866866E+04    8.1587599E+06    4.3329522E+03    8.2682694E+06
    4.58   700.000   -3.583E+02    8.3025726E+06   -4.5952973E+03   -6.9864029E+04    8.1764568E+06    4.5952502E+03    8.3025726E+06
    4.59   700.000   -3.587E+02    8.3424946E+06   -4.8821878E+03   -6.9490327E+04    8.1969412E+06    4.8821422E+03    8.3424946E+06
    4.60   700.000   -3.592E+02    8.3871414E+06   -5.2075378E+03   -6.8774413E+04    8.2192523E+06    5.2074941E+03    8.3871414E+06
    4.61   700.000   -3.596E+02    8.4352777E+06   -5.5812631E+03   -6.7772401E+04    8.2421620E+06    5.5812218E+03    8.4352777E+06
    4.62   700.000   -3.600E+02    8.4853087E+06   -6.0082182E+03   -6.6563864E+04    8.2642276E+06    6.0081796E+03    8.4853087E+06
    4.63   700.000   -3.605E+02    8.5352737E+06   -6.4879460E+03   -6.5244908E+04    8.2838445E+06    6.4879106E+03    8.5352738E+06
    4.64   700.000   -3.609E+02    8.5828675E+06   -7.0151319E+03   -6.3919428E+04    8.2992993E+06    7.0151001E+03    8.5828675E+06
    4.65   700.000   -3.613E+02    8.6255012E+06   -7.5804639E+03   -6.2689435E+04    8.3088269E+06    7.5804361E+03    8.6255012E+06
    4.66   700.000   -3.618E+02    8.6604105E+06   -8.1715819E+03   -6.1645235E+04    8.3106727E+06    8.1715585E+03    8.6604105E+06
    4.67   700.000   -3.622E+02    8.6848043E+06   -8.7738801E+03   -6.0856216E+04    8.3031626E+06    8.7738614E+03    8.6848043E+06
    4.68   700.000   -3.627E+02    8.6960424E+06   -9.3710745E+03   -6.0363184E+04    8.2847782E+06    9.3710608E+03    8.6960424E+06
    4.69   700.000   -3.631E+02    8.6918200E+06   -9.9455808E+03   -6.0173138E+04    8.2542370E+06    9.9455722E+03    8.6918200E+06
    4.70   700.000   -3.635E+02    8.6703345E+06   -1.0478830E+04   -6.0257276E+04    8.2105696E+06    1.0478826E+04    8.6703345E+06
    4.71   700.000   -3.640E+02    8.6304151E+06   -1.0951652E+04   -6.0552590E+04    8.1531905E+06    1.0951654E+04    8.6304151E+06
    4.72   700.000   -3.644E+02    8.5715983E+06   -1.1344834E+04   -6.0966882E+04    8.0819537E+06    1.1344841E+04    8.5715983E+06
    4.73   700.000   -3.649E+02    8.4941470E+06   -1.1639898E+04   -6.1386436E+04    7.9971877E+06    1.1639910E+04    8.4941470E+06
    4.74   700.000   -3.653E+02    8.3990162E+06   -1.1820123E+04   -6.1685121E+04    7.8997052E+06    1.1820139E+04    8.3990161E+06
    4.75   700.000   -3.657E+02    8.2877757E+06   -1.1871782E+04   -6.1733536E+04    7.7907836E+06    1.1871803E+04    8.2877757E+06
    4.76   700.000   -3.662E+02    8.1625040E+06   -1.1785529E+04   -6.1406971E+04    7.6721150E+06    1.1785555E+04    8.1625039E+06
    4.77   700.000   -3.666E+02    8.0256614E+06   -1.1557766E+04   -6.0591579E+04    7.5457276E+06    1.1557795E+04    8.0256614E+06
    4.78   700.000   -3.670E+02    7.8799538E+06   -1.1191799E+04   -5.9188810E+04    7.4138816E+06    1.1191830E+04    7.8799538E+06
    4.79   700.000   -3.674E+02    7.7281880E+06   -1.0698588E+04   -5.7118808E+04    7.2789453E+06    1.0698623E+04    7.7281879E+06
    4.80   700.000   -3.678E+02    7.5731243E+06   -1.0096969E+04   -5.4323656E+04    7.1432593E+06    1.0097005E+04    7.5731242E+06
    4.81   700.000   -3.682E+02    7.4173310E+06   -9.4132987E+03   -5.0771171E+04    7.0089988E+06    9.4133366E+03    7.4173310E+06
    4.82   700.000   -3.686E+02    7.2630491E+06   -8.6805794E+03   -4.6459425E+04    6.8780452E+06    8.6806184E+03    7.2630491E+06
    4.83   700.000   -3.690E+02    7.1120784E+06   -7.9370685E+03   -4.1421524E+04    6.7518770E+06    7.9371083E+03    7.1120784E+06
    4.84   700.000   -3.694E+02    6.9656981E+06   -7.2243627E+03   -3.5729667E+04    6.6314904E+06    7.2244029E+03    6.9656980E+06
    4.85   700.000   -3.698E+02    6.8246323E+06   -6.5849136E+03   -2.9497207E+04    6.5173577E+06    6.5849538E+03    6.8246322E+06
    4.86   700.000   -3.702E+02    6.6890672E+06   -6.0589938E+03   -2.2877359E+04    6.4094273E+06    6.0590336E+03    6.6890671E+06
    4.87   700.000   -3.706E+02    6.5587179E+06   -5.6812810E+03   -1.6057532E+04    6.3071664E+06    5.6813201E+03    6.5587179E+06
    4.88   700.000   -3.710E+02    6.4329380E+06   -5.4774169E+03   -9.2488903E+03    6.2096424E+06    5.4774550E+03    6.4329379E+06
    4.89   700.000   -3.713E+02    6.3108565E+06   -5.4610353E+03   -2.6718168E+03    6.1156345E+06    5.4610720E+03    6.3108564E+06
    4.90   700.000   -3.717E+02    6.1915239E+06   -5.6317728E+03    3.4609186E+03    6.0237649E+06    5.6318079E+03    6.1915239E+06
    4.91   700.000   -3.721E+02    6.0740478E+06   -5.9746490E+03    8.9605064E+03    5.9326339E+06    5.9746822E+03    6.0740478E+06
    4.92   700.000   -3.724E+02    5.9577003E+06   -6.4609719E+03    1.3674960E+04    5.8409457E+06    6.4610029E+03    5.9577002E+06
    4.93   700.000   -3.728E+02    5.8419844E+06   -7.0506688E+03    1.7496160E+04    5.7476092E+06    7.0506974E+03    5.8419844E+06
    4.94   700.000   -3.732E+02    5.7266546E+06   -7.6957330E+03    2.0360272E+04    5.6518042E+06    7.6957590E+03    5.7266546E+06
    4.95   700.000   -3.735E+02    5.6116906E+06   -8.3443591E+03    2.2242577E+04    5.5530072E+06    8.3443822E+03    5.6116906E+06
    4.96   700.000   -3.738E+02    5.4972335E+06   -8.9453148E+03    2.3149236E+04    5.4509748E+06    8.9453348E+03    5.4972334E+06
    4.97   700.000   -3.742E+02    5.3834962E+06   -9.4521308E+03    2.3109146E+04    5.3456927E+06    9.4521476E+03    5.3834962E+06
    4.98   700.000   -3.745E+02    5.2706647E+06   -9.8267492E+03    2.2168456E+04    5.2373010E+06    9.8267626E+03    5.2706647E+06
    4.99   700.000   -3.748E+02    5.1588053E+06   -1.0042333E+04    2.0389018E+04    5.1260092E+06    1.0042343E+04    5.1588052E+06
    5.00   700.000   -3.752E+02    5.0477934E+06   -1.0085014E+04    1.7850395E+04    5.0120192E+06    1.0085021E+04    5.0477934E+06
# T(K) = 800.00   Npoints =    1001   V(cm^3) =  1.231E-20
   -5.00   800.000    3.458E+02    1.6266544E+06   -8.2463540E+02   -2.5656625E+04    1.5629087E+06    8.2462792E+02    1.6266544E+06
   -4.99   800.000    3.450E+02    1.6301971E+06   -6.3410065E+02   -2.3264935E+04    1.5660796E+06    6.3409273E+02    1.6301971E+06
   -4.98   800.000    3.443E+02    1.6299971E+06   -4.5454781E+02   -2.0812137E+04    1.5659318E+06    4.5453943E+02    1.6299971E+06
   -4.97   800.000    3.435E+02    1.6262658E+06   -2.8324642E+02   -1.8343647E+04    1.5626305E+06    2.8323754E+02    1.6262658E+06
   -4.96   800.000    3.427E+02    1.6192382E+06   -1.1789355E+02   -1.5901568E+04    1.5563490E+06    1.1788416E+02    1.6192382E+06
   -4.95   800.000    3.420E+02    1.6091623E+06    4.3093284E+01   -1.3523154E+04    1.5472640E+06   -4.3103226E+01    1.6091623E+06
   -4.94   800.000    3.412E+02    1.5962883E+06    2.0039893E+02   -1.1239943E+04    1.5355520E+06   -2.0040945E+02    1.5962883E+06
   -4.93   800.000    3.405E+02    1.5808578E+06    3.5375961E+02   -9.0775348E+03    1.5213841E+06   -3.5377072E+02    1.5808578E+06
   -4.92   800.000    3.397E+02    1.5630951E+06    5.0203293E+02   -7.0558801E+03    1.5049225E+06   -5.0204463E+02    1.5630951E+06
   -4.91   800.000    3.390E+02    1.5432009E+06    6.4336911E+02   -5.1899032E+03    1.4863164E+06   -6.4338142E+02    1.5432009E+06
   -4.90   800.000    3.383E+02    1.5213481E+06    7.7545392E+02   -3.4902618E+03    1.4657010E+06   -7.7546684E+02    1.5213481E+06
   -4.89   800.000    3.375E+02    1.4976819E+06    8.9578886E+02   -1.9640806E+03    1.4431958E+06   -8.9580237E+02    1.4976819E+06
   -4.88   800.000    3.368E+02    1.4723208E+06    1.0019746E+03   -6.1555235E+02    1.4189065E+06   -1.0019887E+03    1.4723208E+06
   -4.87   800.000    3.361E+02    1.4453607E+06    1.0919678E+03    5.5364121E+02    1.3929264E+06   -1.0919823E+03    1.4453607E+06
   -4.86   800.000    3.354E+02    1.4168796E+06    1.1642864E+03    1.5440805E+03    1.3653397E+06   -1.1643015E+03    1.4168796E+06
   -4.85   800.000    3.347E+02    1.3869431E+06    1.2181483E+03    2.3584880E+03    1.3362252E+06   -1.2181638E+03    1.3869431E+06
   -4.84   800.000    3.340E+02    1.3556094E+06    1.2535315E+03    3.0016781E+03    1.3056592E+06   -1.2535473E+03    1.3556094E+06
   -4.83   800.000    3.334E+02    1.3229339E+06    1.2711564E+03    3.4805181E+03    1.2737189E+06   -1.2711725E+03    1.3229339E+06
   -4.82   800.000    3.327E+02    1.2889733E+06    1.2723960E+03    3.8038524E+03    1.2404845E+06   -1.2724122E+03    1.2889733E+06
   -4.81   800.000    3.321E+02    1.2537883E+06    1.2591279E+03    3.9823561E+03    1.2060412E+06   -1.2591443E+03    1.2537883E+06
   -4.80   800.000    3.314E+02    1.2174462E+06    1.2335509E+03    4.0283002E+03    1.1704805E+06   -1.2335673E+03    1.2174462E+06
   -4.79   800.000    3.308E+02    1.1800229E+06    1.1979888E+03    3.9552228E+03    1.1339010E+06   -1.1980052E+03    1.1800229E+06
   -4.78   800.000    3.302E+02    1.1416047E+06    1.1547098E+03    3.7775150E+03    1.0964091E+06   -1.1547260E+03    1.1416047E+06
   -4.77   800.000    3.296E+02    1.1022894E+06    1.1057807E+03    3.5099425E+03    1.0581195E+06   -1.1057968E+03    1.1022894E+06
   -4.76   800.000    3.290E+02    1.0621882E+06    1.0529738E+03    3.1671424E+03    1.0191556E+06   -1.0529896E+03    1.0621882E+06
   -4.75   800.000    3.285E+02    1.0214265E+06    9.9772918E+02    2.7631414E+03    9.7965021E+05   -9.9774475E+02    1.0214265E+06
   -4.74   800.000    3.279E+02    9.8014478E+05    9.4117005E+02    2.3109502E+03    9.3974527E+05   -9.4118530E+02    9.8014479E+05
   -4.73   800.000    3.274E+02    9.3849828E+05    8.8415729E+02    1.8222784E+03    8.9959212E+05   -8.8417217E+02    9.3849829E+05
   -4.72   800.000    3.269E+02    8.9665629E+05    8.2736648E+02    1.3073996E+03    8.5935080E+05   -8.2738096E+02    8.9665631E+05
   -4.71   800.000    3.263E+02    8.5480009E+05    7.7136945E+02    7.7516984E+02    8.1918904E+05   -7.7138348E+02    8.5480011E+05
   -4.70   800.000    3.258E+02    8.1311998E+05    7.1670552E+02    2.3317631E+02    7.7928059E+05   -7.1671905E+02    8.1311999E+05
   -4.69   800.000    3.253E+02    7.7181150E+05    6.6393298E+02   -3.1202435E+02    7.3980298E+05   -6.6394599E+02    7.7181151E+05
   -4.68   800.000    3.248E+02    7.3107118E+05    6.1365670E+02   -8.5463004E+02    7.0093483E+05   -6.1366916E+02    7.3107119E+05
   -4.67   800.000    3.243E+02    6.9109212E+05    5.6653214E+02   -1.3893282E+03    6.6285279E+05   -5.6654401E+02    6.9109213E+05
   -4.66   800.000    3.239E+02    6.5205980E+05    5.2324891E+02   -1.9110798E+03    6.2572857E+05   -5.2326017E+02    6.5205982E+05
   -4.65   800.000    3.234E+02    6.1414849E+05    4.8449802E+02   -2.4149734E+03    5.8972607E+05   -4.8450866E+02    6.1414850E+05
   -4.64   800.000    3.229E+02    5.7751829E+05    4.5092749E+02   -2.8961556E+03    5.5499890E+05   -4.5093750E+02    5.7751830E+05
   -4.63   800.000    3.224E+02    5.4231300E+05    4.2309118E+02   -3.3498294E+03    5.2168836E+05   -4.2310056E+02    5.4231301E+05
   -4.62   800.000    3.219E+02    5.0865873E+05    4.0139644E+02   -3.7713059E+03    4.8992189E+05   -4.0140518E+02    5.0865874E+05
   -4.61   800.000    3.214E+02    4.7666304E+05    3.8605673E+02   -4.1560932E+03    4.5981183E+05   -3.8606484E+02    4.7666305E+05
   -4.60   800.000    3.209E+02    4.4641454E+05    3.7705593E+02   -4.5000062E+03    4.3145450E+05   -3.7706344E+02    4.4641455E+05
   -4.59   800.000    3.203E+02    4.1798282E+05    3.7413018E+02   -4.7992887E+03    4.0492933E+05   -3.7413709E+02    4.1798284E+05
   -4.58   800.000    3.198E+02    3.9141865E+05    3.7677121E+02   -5.0507397E+03    3.8029802E+05   -3.7677755E+02    3.9141866E+05
   -4.57   800.000    3.192E+02    3.6675422E+05    3.8425237E+02   -5.2518417E+03    3.5760368E+05   -3.8425816E+02    3.6675423E+05
   -4.56   800.000    3.186E+02    3.4400373E+05    3.9567476E+02   -5.4008853E+03    3.3686995E+05   -3.9568003E+02    3.4400374E+05
   -4.55   800.000    3.180E+02    3.2316396E+05    4.1002779E+02   -5.4970867E+03    3.1810023E+05   -4.1003257E+02    3.2316397E+05
   -4.54   800.000    3.173E+02    3.0421510E+05    4.2625614E+02   -5.5406891E+03    3.0127695E+05   -4.2626046E+02    3.0421511E+05
   -4.53   800.000    3.166E+02    2.8712169E+05    4.4332429E+02   -5.5330371E+03    2.8636129E+05   -4.4332818E+02    2.8712170E+05
   -4.52   800.000    3.159E+02    2.7183364E+05    4.6027041E+02   -5.4766142E+03    2.7329315E+05   -4.6027390E+02    2.7183365E+05
   -4.51   800.000    3.151E+02    2.5828739E+05    4.7624362E+02   -5.3750334E+03    2.6199180E+05   -4.7624675E+02    2.5828740E+05
   -4.50   800.000    3.143E+02    2.4640709E+05    4.9052158E+02   -5.2329759E+03    2.5235701E+05   -4.9052439E+02    2.4640710E+05
   -4.49   800.000    3.134E+02    2.3610580E+05    5.0250881E+02   -5.0560798E+03    2.4427097E+05   -5.0251131E+02    2.3610581E+05
   -4.48   800.000    3.125E+02    2.2728666E+05    5.1171931E+02   -4.8507841E+03    2.3760076E+05   -5.1172154E+02    2.2728666E+05
   -4.47   800.000    3.115E+02    2.1984398E+05    5.1774979E+02   -4.6241392E+03    2.3220138E+05   -5.1775179E+02    2.1984399E+05
   -4.46   800.000    3.105E+02    2.1366439E+05    5.2025069E+02   -4.3835957E+03    2.2791917E+05   -5.2025247E+02    2.1366439E+05
   -4.45   800.000    3.094E+02    2.0862782E+05    5.1890230E+02   -4.1367808E+03    2.2459544E+05   -5.1890389E+02    2.0862783E+05
   -4.44   800.000    3.082E+02    2.0460868E+05    5.1340171E+02   -3.8912687E+03    2.2207012E+05   -5.1340314E+02    2.0460868E+05
   -4.43   800.000    3.069E+02    2.0147698E+05    5.0346346E+02   -3.6543474E+03    2.2018515E+05   -5.0346476E+02    2.0147698E+05
   -4.42   800.000    3.056E+02    1.9909975E+05    4.8883365E+02   -3.4327838E+03    2.1878757E+05   -4.8883483E+02    1.9909975E+05
   -4.41   800.000    3.042E+02    1.9734261E+05    4.6931417E+02   -3.2325893E+03    2.1773213E+05   -4.6931525E+02    1.9734261E+05
   -4.40   800.000    3.027E+02    1.9607168E+05    4.4479144E+02   -3.0587975E+03    2.1688345E+05   -4.4479244E+02    1.9607168E+05
   -4.39   800.000    3.010E+02    1.9515574E+05    4.1526291E+02   -2.9152677E+03    2.1611774E+05   -4.1526384E+02    1.9515574E+05
   -4.38   800.000    2.993E+02    1.9446873E+05    3.8085527E+02   -2.8045387E+03    2.1532426E+05   -3.8085614E+02    1.9446873E+05
   -4.37   800.000    2.975E+02    1.9389238E+05    3.4182995E+02   -2.7277543E+03    2.1440644E+05   -3.4183078E+02    1.9389238E+05
   -4.36   800.000    2.955E+02    1.9331901E+05    2.9857395E+02   -2.6846790E+03    2.1328301E+05   -2.9857473E+02    1.9331901E+05
   -4.35   800.000    2.934E+02    1.9265433E+05    2.5157685E+02   -2.6738116E+03    2.1188895E+05   -2.5157758E+02    1.9265432E+05
   -4.34   800.000    2.912E+02    1.9181998E+05    2.0139695E+02   -2.6925898E+03    2.1017643E+05   -2.0139763E+02    1.9181998E+05
   -4.33   800.000    2.889E+02    1.9075583E+05    1.4862073E+02   -2.7376656E+03    2.0811556E+05   -1.4862137E+02    1.9075582E+05
   -4.32   800.000    2.864E+02    1.8942162E+05    9.3819994E+01   -2.8052192E+03    2.0569493E+05   -9.3820573E+01    1.8942162E+05
   -4.31   800.000    2.838E+02    1.8779812E+05    3.7510432E+01   -2.8912755E+03    2.0292172E+05   -3.7510948E+01    1.8779811E+05
   -4.30   800.000    2.811E+02    1.8588730E+05   -1.9885535E+01   -2.9919882E+03    1.9982135E+05    1.9885091E+01    1.8588730E+05
   -4.29   800.000    2.783E+02    1.8371183E+05   -7.8069895E+01   -3.1038652E+03    1.9643654E+05    7.8069531E+01    1.8371182E+05
   -4.28   800.000    2.754E+02    1.8131361E+05   -1.3689287E+02   -3.2239204E+03    1.9282566E+05    1.3689260E+02    1.8131361E+05
   -4.27   800.000    2.723E+02    1.7875156E+05   -1.9636850E+02   -3.3497491E+03    1.8906054E+05    1.9636832E+02    1.7875156E+05
   -4.26   800.000    2.692E+02    1.7609868E+05   -2.5668103E+02   -3.4795366E+03    1.8522361E+05    2.5668095E+02    1.7609867E+05
   -4.25   800.000    2.659E+02    1.7343860E+05   -3.1818152E+02   -3.6120159E+03    1.8140473E+05    3.1818155E+02    1.7343860E+05
   -4.24   800.000    2.626E+02    1.7086187E+05   -3.8137447E+02   -3.7463944E+03    1.7769765E+05    3.8137461E+02    1.7086187E+05
   -4.23   800.000    2.591E+02    1.6846206E+05   -4.4689494E+02   -3.8822668E+03    1.7419643E+05    4.4689520E+02    1.6846206E+05
   -4.22   800.000    2.556E+02    1.6633208E+05   -5.1547735E+02   -4.0195299E+03    1.7099205E+05    5.1547772E+02    1.6633207E+05
   -4.21   800.000    2.521E+02    1.6456076E+05   -5.8791750E+02   -4.1583066E+03    1.6816920E+05    5.8791797E+02    1.6456076E+05
   -4.20   800.000    2.484E+02    1.6323000E+05   -6.6502937E+02   -4.2988837E+03    1.6580369E+05    6.6502995E+02    1.6323000E+05
   -4.19   800.000    2.448E+02    1.6241245E+05   -7.4759779E+02   -4.4416624E+03    1.6396029E+05    7.4759847E+02    1.6241244E+05
   -4.18   800.000    2.410E+02    1.6216989E+05   -8.3632729E+02   -4.5871214E+03    1.6269135E+05    8.3632806E+02    1.6216989E+05
   -4.17   800.000    2.372E+02    1.6255235E+05   -9.3178719E+02   -4.7357874E+03    1.6203601E+05    9.3178804E+02    1.6255234E+05
   -4.16   800.000    2.334E+02    1.6359774E+05   -1.0343525E+03   -4.8882134E+03    1.6202011E+05    1.0343534E+03    1.6359773E+05
   -4.15   800.000    2.296E+02    1.6533216E+05   -1.1441409E+03   -5.0449615E+03    1.6265662E+05    1.1441419E+03    1.6533216E+05
   -4.14   800.000    2.257E+02    1.6777053E+05   -1.2609479E+03   -5.2065880E+03    1.6394664E+05    1.2609489E+03    1.6777053E+05
   -4.13   800.000    2.218E+02    1.7091754E+05   -1.3841822E+03   -5.3736290E+03    1.6588061E+05    1.3841832E+03    1.7091753E+05
   -4.12   800.000    2.180E+02    1.7476858E+05   -1.5128083E+03   -5.5465802E+03    1.6843986E+05    1.5128094E+03    1.7476858E+05
   -4.11   800.000    2.141E+02    1.7931078E+05   -1.6453027E+03   -5.7258675E+03    1.7159810E+05    1.6453039E+03    1.7931077E+05
   -4.10   800.000    2.102E+02    1.8452358E+05   -1.7796324E+03   -5.9118012E+03    1.7532285E+05    1.7796335E+03    1.8452358E+05
   -4.09   800.000    2.064E+02    1.9037923E+05   -1.9132636E+03   -6.1045111E+03    1.7957670E+05    1.9132647E+03    1.9037923E+05
   -4.08   800.000    2.026E+02    1.9684272E+05   -2.0432090E+03   -6.3038595E+03    1.8431825E+05    2.0432101E+03    1.9684272E+05
   -4.07   800.000    1.989E+02    2.0387153E+05   -2.1661162E+03   -6.5093360E+03    1.8950275E+05    2.1661173E+03    2.0387153E+05
   -4.06   800.000    1.952E+02    2.1141496E+05   -2.2783989E+03   -6.7199395E+03    1.9508239E+05    2.2784000E+03    2.1141496E+05
   -4.05   800.000    1.916E+02    2.1941350E+05   -2.3764063E+03   -6.9340598E+03    2.0100640E+05    2.3764074E+03    2.1941350E+05
   -4.04   800.000    1.880E+02    2.2779811E+05   -2.4566229E+03   -7.1493755E+03    2.0722095E+05    2.4566239E+03    2.2779811E+05
   -4.03   800.000    1.846E+02    2.3648991E+05   -2.5158865E+03   -7.3627862E+03    2.1366892E+05    2.5158875E+03    2.3648991E+05
   -4.02   800.000    1.812E+02    2.4540023E+05   -2.5516084E+03   -7.5704038E+03    2.2028984E+05    2.5516093E+03    2.4540022E+05
   -4.01   800.000    1.779E+02    2.5443138E+05   -2.5619793E+03   -7.7676220E+03    2.2701992E+05    2.5619801E+03    2.5443138E+05
   -4.00   800.000    1.748E+02    2.6347822E+05   -2.5461414E+03   -7.9492835E+03    2.3379245E+05    2.5461422E+03    2.6347822E+05
   -3.99   800.000    1.718E+02    2.7243057E+05   -2.5043098E+03   -8.1099547E+03    2.4053857E+05    2.5043104E+03    2.7243057E+05
   -3.98   800.000    1.688E+02    2.8117635E+05   -2.4378290E+03   -8.2443032E+03    2.4718855E+05    2.4378295E+03    2.8117635E+05
   -3.97   800.000    1.660E+02    2.8960551E+05   -2.3491555E+03   -8.3475593E+03    2.5367353E+05    2.3491560E+03    2.8960551E+05
   -3.96   800.000    1.633E+02    2.9761434E+05   -2.2417635E+03   -8.4160234E+03    2.5992775E+05    2.2417639E+03    2.9761434E+05
   -3.95   800.000    1.608E+02    3.0510987E+05   -2.1199769E+03   -8.4475694E+03    2.6589109E+05    2.1199772E+03    3.0510987E+05
   -3.94   800.000    1.583E+02    3.1201402E+05   -1.9887401E+03   -8.4420835E+03    2.7151177E+05    1.9887403E+03    3.1201402E+05
   -3.93   800.000    1.560E+02    3.1826716E+05   -1.8533412E+03   -8.4017868E+03    2.7674891E+05    1.8533413E+03    3.1826715E+05
   -3.92   800.000    1.538E+02    3.2383058E+05   -1.7191078E+03   -8.3313988E+03    2.8157466E+05    1.7191078E+03    3.2383058E+05
   -3.91   800.000    1.516E+02    3.2868784E+05   -1.5910961E+03   -8.2381223E+03    2.8597572E+05    1.5910960E+03    3.2868784E+05
   -3.90   800.000    1.496E+02    3.3284464E+05   -1.4737938E+03   -8.1314529E+03    2.8995388E+05    1.4737936E+03    3.3284464E+05
   -3.89   800.000    1.477E+02    3.3632754E+05   -1.3708562E+03   -8.0228334E+03    2.9352575E+05    1.3708559E+03    3.3632753E+05
   -3.88   800.000    1.458E+02    3.3918144E+05   -1.2848914E+03   -7.9251837E+03    2.9672142E+05    1.2848911E+03    3.3918143E+05
   -3.87   800.000    1.440E+02    3.4146638E+05   -1.2173092E+03   -7.8523429E+03    2.9958249E+05    1.2173088E+03    3.4146638E+05
   -3.86   800.000    1.424E+02    3.4325381E+05   -1.1682400E+03   -7.8184546E+03    3.0215942E+05    1.1682396E+03    3.4325381E+05
   -3.85   800.000    1.407E+02    3.4462275E+05   -1.1365304E+03   -7.8373271E+03    3.0450874E+05    1.1365299E+03    3.4462275E+05
   -3.84   800.000    1.392E+02    3.4565614E+05   -1.1198119E+03   -7.9218007E+03    3.0669006E+05    1.1198114E+03    3.4565614E+05
   -3.83   800.000    1.377E+02    3.4643745E+05   -1.1146385E+03   -8.0831591E+03    3.0876334E+05    1.1146380E+03    3.4643745E+05
   -3.82   800.000    1.362E+02    3.4704773E+05   -1.1166822E+03   -8.3306236E+03    3.1078630E+05    1.1166817E+03    3.4704773E+05
   -3.81   800.000    1.348E+02    3.4756313E+05   -1.1209721E+03   -8.6709712E+03    3.1281222E+05    1.1209716E+03    3.4756313E+05
   -3.80   800.000    1.334E+02    3.4805277E+05   -1.1221619E+03   -9.1083050E+03    3.1488801E+05    1.1221614E+03    3.4805276E+05
   -3.79   800.000    1.321E+02    3.4857705E+05   -1.1148069E+03   -9.6439916E+03    3.1705265E+05    1.1148063E+03    3.4857705E+05
   -3.78   800.000    1.308E+02    3.4918645E+05   -1.0936317E+03   -1.0276750E+04    3.1933600E+05    1.0936312E+03    3.4918645E+05
   -3.77   800.000    1.296E+02    3.4992074E+05   -1.0537734E+03   -1.1002860E+04    3.2175804E+05    1.0537729E+03    3.4992074E+05
   -3.76   800.000    1.283E+02    3.5080876E+05   -9.9098225E+02   -1.1816425E+04    3.2432869E+05    9.9098173E+02    3.5080875E+05
   -3.75   800.000    1.271E+02    3.5186877E+05   -9.0177222E+02   -1.2709643E+04    3.2704808E+05    9.0177170E+02    3.5186877E+05
   -3.74   800.000    1.259E+02    3.5310938E+05   -7.8351555E+02   -1.3673017E+04    3.2990755E+05    7.8351501E+02    3.5310938E+05
   -3.73   800.000    1.247E+02    3.5453100E+05   -6.3448429E+02   -1.4695493E+04    3.3289125E+05    6.3448372E+02    3.5453100E+05
   -3.72   800.000    1.236E+02    3.5612762E+05   -4.5384863E+02   -1.5764520E+04    3.3597825E+05    4.5384803E+02    3.5612762E+05
   -3.71   800.000    1.224E+02    3.5788884E+05   -2.4164653E+02   -1.6866093E+04    3.3914491E+05    2.4164589E+02    3.5788884E+05
   -3.70   800.000    1.213E+02    3.5980187E+05    1.2585640E+00   -1.7984832E+04    3.4236737E+05   -1.2592482E+00    3.5980187E+05
   -3.69   800.000    1.201E+02    3.6185317E+05    2.7321688E+02   -1.9104184E+04    3.4562378E+05   -2.7321763E+02    3.6185317E+05
   -3.68   800.000    1.190E+02    3.6402978E+05    5.7181857E+02   -2.0206812E+04    3.4889592E+05   -5.7181938E+02    3.6402978E+05
   -3.67   800.000    1.179E+02    3.6631994E+05    8.9390424E+02   -2.1275196E+04    3.5217007E+05   -8.9390511E+02    3.6631994E+05
   -3.66   800.000    1.168E+02    3.6871324E+05    1.2355647E+03   -2.2292431E+04    3.5543697E+05   -1.2355657E+03    3.6871324E+05
   -3.65   800.000    1.157E+02    3.7120015E+05    1.5921410E+03   -2.3243158E+04    3.5869100E+05   -1.5921420E+03    3.7120015E+05
   -3.64   800.000    1.146E+02    3.7377125E+05    1.9582389E+03   -2.4114521E+04    3.6192874E+05   -1.9582400E+03    3.7377125E+05
   -3.63   800.000    1.135E+02    3.7641632E+05    2.3277733E+03   -2.4897021E+04    3.6514726E+05   -2.3277745E+03    3.7641632E+05
   -3.62   800.000    1.124E+02    3.7912351E+05    2.6940557E+03   -2.5585148E+04    3.6834256E+05   -2.6940570E+03    3.7912351E+05
   -3.61   800.000    1.113E+02    3.8187888E+05    3.0499347E+03   -2.6177699E+04    3.7150854E+05   -3.0499361E+03    3.8187889E+05
   -3.60   800.000    1.101E+02    3.8466634E+05    3.3879940E+03   -2.6677715E+04    3.7463667E+05   -3.3879954E+03    3.8466634E+05
   -3.59   800.000    1.090E+02    3.8746818E+05    3.7008059E+03   -2.7092062E+04    3.7771654E+05   -3.7008074E+03    3.8746818E+05
   -3.58   800.000    1.079E+02    3.9026609E+05    3.9812326E+03   -2.7430697E+04    3.8073711E+05   -3.9812342E+03    3.9026609E+05
   -3.57   800.000    1.068E+02    3.9304258E+05    4.2227569E+03   -2.7705728E+04    3.8368847E+05   -4.2227586E+03    3.9304258E+05
   -3.56   800.000    1.057E+02    3.9578247E+05    4.4198172E+03   -2.7930389E+04    3.8656368E+05   -4.4198190E+03    3.9578248E+05
   -3.55   800.000    1.045E+02    3.9847442E+05    4.5681160E+03   -2.8118065E+04    3.8936027E+05   -4.5681178E+03    3.9847442E+05
   -3.54   800.000    1.034E+02    4.0111191E+05    4.6648656E+03   -2.8281469E+04    3.9208117E+05   -4.6648675E+03    4.0111191E+05
   -3.53   800.000    1.022E+02    4.0369379E+05    4.7089417E+03   -2.8432034E+04    3.9473477E+05   -4.7089436E+03    4.0369380E+05
   -3.52   800.000    1.011E+02    4.0622402E+05    4.7009192E+03   -2.8579565E+04    3.9733406E+05   -4.7009212E+03    4.0622402E+05
   -3.51   800.000    9.994E+01    4.0871070E+05    4.6429845E+03   -2.8732091E+04    3.9989507E+05   -4.6429865E+03    4.0871070E+05
   -3.50   800.000    9.878E+01    4.1116454E+05    4.5387311E+03   -2.8895890E+04    4.0243485E+05   -4.5387332E+03    4.1116454E+05
   -3.49   800.000    9.761E+01    4.1359691E+05    4.3928645E+03   -2.9075588E+04    4.0496919E+05   -4.3928666E+03    4.1359691E+05
   -3.48   800.000    9.643E+01    4.1601789E+05    4.2108510E+03   -2.9274255E+04    4.0751072E+05   -4.2108531E+03    4.1601789E+05
   -3.47   800.000    9.524E+01    4.1843451E+05    3.9985530E+03   -2.9493439E+04    4.1006731E+05   -3.9985552E+03    4.1843452E+05
   -3.46   800.000    9.404E+01    4.2084955E+05    3.7618875E+03   -2.9733107E+04    4.1264129E+05   -3.7618898E+03    4.2084955E+05
   -3.45   800.000    9.284E+01    4.2326097E+05    3.5065383E+03   -2.9991497E+04    4.1522939E+05   -3.5065406E+03    4.2326097E+05
   -3.44   800.000    9.161E+01    4.2566216E+05    3.2377388E+03   -3.0264909E+04    4.1782346E+05   -3.2377412E+03    4.2566216E+05
   -3.43   800.000    9.038E+01    4.2804282E+05    2.9601332E+03   -3.0547510E+04    4.2041180E+05   -2.9601357E+03    4.2804282E+05
   -3.42   800.000    8.913E+01    4.3039045E+05    2.6777114E+03   -3.0831213E+04    4.2298103E+05   -2.6777140E+03    4.3039045E+05
   -3.41   800.000    8.786E+01    4.3269217E+05    2.3938112E+03   -3.1105704E+04    4.2551806E+05   -2.3938139E+03    4.3269217E+05
   -3.40   800.000    8.657E+01    4.3493667E+05    2.1111773E+03   -3.1358656E+04    4.2801221E+05   -2.1111801E+03    4.3493667E+05
   -3.39   800.000    8.526E+01    4.3711603E+05    1.8320667E+03   -3.1576154E+04    4.3045693E+05   -1.8320695E+03    4.3711603E+05
   -3.38   800.000    8.393E+01    4.3922726E+05    1.5583913E+03   -3.1743300E+04    4.3285116E+05   -1.5583942E+03    4.3922725E+05
   -3.37   800.000    8.257E+01    4.4127324E+05    1.2918862E+03   -3.1844949E+04    4.3519996E+05   -1.2918892E+03    4.4127324E+05
   -3.36   800.000    8.119E+01    4.4326315E+05    1.0342883E+03   -3.1866494E+04    4.3751438E+05   -1.0342914E+03    4.4326314E+05
   -3.35   800.000    7.978E+01    4.4521201E+05    7.8750613E+02   -3.1794618E+04    4.3981049E+05   -7.8750927E+02    4.4521201E+05
   -3.34   800.000    7.835E+01    4.4713968E+05    5.5375883E+02   -3.1617945E+04    4.4210763E+05   -5.5376200E+02    4.4713967E+05
   -3.33   800.000    7.688E+01    4.4906896E+05    3.3565997E+02   -3.1327545E+04    4.4442589E+05   -3.3566315E+02    4.4906895E+05
   -3.32   800.000    7.538E+01    4.5102338E+05    1.3622842E+02   -3.0917273E+04    4.4678328E+05   -1.3623159E+02    4.5102338E+05
   -3.31   800.000    7.386E+01    4.5302453E+05   -4.1183942E+01   -3.0383998E+04    4.4919262E+05    4.1180816E+01    4.5302453E+05
   -3.30   800.000    7.230E+01    4.5508937E+05   -1.9304475E+02   -2.9727738E+04    4.5165879E+05    1.9304169E+02    4.5508937E+05
   -3.29   800.000    7.071E+01    4.5722783E+05   -3.1585694E+02   -2.8951768E+04    4.5417647E+05    3.1585398E+02    4.5722783E+05
   -3.28   800.000    6.909E+01    4.5944089E+05   -4.0640899E+02   -2.8062748E+04    4.5672890E+05    4.0640615E+02    4.5944088E+05
   -3.27   800.000    6.744E+01    4.6171944E+05   -4.6202302E+02   -2.7070853E+04    4.5928766E+05    4.6202033E+02    4.6171944E+05
   -3.26   800.000    6.576E+01    4.6404406E+05   -4.8076347E+02   -2.5989909E+04    4.6181371E+05    4.8076096E+02    4.6404406E+05
   -3.25   800.000    6.405E+01    4.6638557E+05   -4.6157531E+02   -2.4837440E+04    4.6425944E+05    4.6157301E+02    4.6638557E+05
   -3.24   800.000    6.232E+01    4.6870647E+05   -4.0433406E+02   -2.3634592E+04    4.6657158E+05    4.0433199E+02    4.6870647E+05
   -3.23   800.000    6.057E+01    4.7096286E+05   -3.0980642E+02   -2.2405819E+04    4.6869440E+05    3.0980460E+02    4.7096286E+05
   -3.22   800.000    5.881E+01    4.7310672E+05   -1.7953762E+02   -2.1178331E+04    4.7057305E+05    1.7953607E+02    4.7310672E+05
   -3.21   800.000    5.702E+01    4.7508815E+05   -1.5694541E+01   -1.9981259E+04    4.7215644E+05    1.5693265E+01    4.7508815E+05
   -3.20   800.000    5.523E+01    4.7685738E+05    1.7910080E+02   -1.8844588E+04    4.7339945E+05   -1.7910180E+02    4.7685738E+05
   -3.19   800.000    5.344E+01    4.7836639E+05    4.0191528E+02   -1.7797918E+04    4.7426434E+05   -4.0191602E+02    4.7836639E+05
   -3.18   800.000    5.164E+01    4.7957002E+05    6.4960512E+02   -1.6869139E+04    4.7472141E+05   -6.4960562E+02    4.7957002E+05
   -3.17   800.000    4.985E+01    4.8042656E+05    9.1886639E+02   -1.6083110E+04    4.7474882E+05   -9.1886667E+02    4.8042656E+05
   -3.16   800.000    4.807E+01    4.8089796E+05    1.2062449E+03   -1.5460443E+04    4.7433207E+05   -1.2062450E+03    4.8089796E+05
   -3.15   800.000    4.630E+01    4.8094973E+05    1.5081263E+03   -1.5016446E+04    4.7346313E+05   -1.5081262E+03    4.8094973E+05
   -3.14   800.000    4.456E+01    4.8055072E+05    1.8207328E+03   -1.4760312E+04    4.7213951E+05   -1.8207327E+03    4.8055072E+05
   -3.13   800.000    4.284E+01    4.7967292E+05    2.1401492E+03   -1.4694582E+04    4.7036347E+05   -2.1401490E+03    4.7967292E+05
   -3.12   800.000    4.115E+01    4.7829135E+05    2.4623922E+03   -1.4814926E+04    4.6814135E+05   -2.4623920E+03    4.7829135E+05
   -3.11   800.000    3.950E+01    4.7638409E+05    2.7835235E+03   -1.5110264E+04    4.6548306E+05   -2.7835233E+03    4.7638409E+05
   -3.10   800.000    3.789E+01    4.7393245E+05    3.0997930E+03   -1.5563232E+04    4.6240165E+05   -3.0997928E+03    4.7393245E+05
   -3.09   800.000    3.633E+01    4.7092131E+05    3.4077872E+03   -1.6150985E+04    4.5891283E+05   -3.4077872E+03    4.7092131E+05
   -3.08   800.000    3.481E+01    4.6733948E+05    3.7045548E+03   -1.6846315E+04    4.5503444E+05   -3.7045549E+03    4.6733948E+05
   -3.07   800.000    3.334E+01    4.6318014E+05    3.9876829E+03   -1.7619010E+04    4.5078578E+05   -3.9876831E+03    4.6318014E+05
   -3.06   800.000    3.192E+01    4.5844134E+05    4.2553089E+03   -1.8437398E+04    4.4618683E+05   -4.2553094E+03    4.5844134E+05
   -3.05   800.000    3.056E+01    4.5312655E+05    4.5060652E+03   -1.9269942E+04    4.4125754E+05   -4.5060659E+03    4.5312655E+05
   -3.04   800.000    2.925E+01    4.4724538E+05    4.7389685E+03   -2.0086796E+04    4.3601725E+05   -4.7389694E+03    4.4724538E+05
   -3.03   800.000    2.800E+01    4.4081434E+05    4.9532797E+03   -2.0861176E+04    4.3048447E+05   -4.9532808E+03    4.4081433E+05
   -3.02   800.000    2.680E+01    4.3385775E+05    5.1483613E+03   -2.1570457E+04    4.2467696E+05   -5.1483627E+03    4.3385774E+05
   -3.01   800.000    2.565E+01    4.2640868E+05    5.3235654E+03   -2.2196913E+04    4.1861241E+05   -5.3235669E+03    4.2640868E+05
   -3.00   800.000    2.456E+01    4.1850981E+05    5.4781739E+03   -2.2728073E+04    4.1230937E+05   -5.4781756E+03    4.1850980E+05
   -2.99   800.000    2.352E+01    4.1021402E+05    5.6114065E+03   -2.3156715E+04    4.0578863E+05   -5.6114084E+03    4.1021402E+05
   -2.98   800.000    2.253E+01    4.0158470E+05    5.7224961E+03   -2.3480550E+04    3.9907472E+05   -5.7224981E+03    4.0158469E+05
   -2.97   800.000    2.159E+01    3.9269538E+05    5.8108197E+03   -2.3701690E+04    3.9219725E+05   -5.8108219E+03    3.9269538E+05
   -2.96   800.000    2.069E+01    3.8362886E+05    5.8760617E+03   -2.3825990E+04    3.8519207E+05   -5.8760639E+03    3.8362885E+05
   -2.95   800.000    1.984E+01    3.7447543E+05    5.9183762E+03   -2.3862340E+04    3.7810188E+05   -5.9183786E+03    3.7447543E+05
   -2.94   800.000    1.904E+01    3.6533055E+05    5.9385175E+03   -2.3821983E+04    3.7097616E+05   -5.9385199E+03    3.6533054E+05
   -2.93   800.000    1.827E+01    3.5629172E+05    5.9379051E+03   -2.3717875E+04    3.6387032E+05   -5.9379075E+03    3.5629171E+05
   -2.92   800.000    1.755E+01    3.4745502E+05    5.9186054E+03   -2.3564125E+04    3.5684421E+05   -5.9186078E+03    3.4745502E+05
   -2.91   800.000    1.686E+01    3.3891138E+05    5.8832219E+03   -2.3375488E+04    3.4995991E+05   -5.8832243E+03    3.3891138E+05
   -2.90   800.000    1.621E+01    3.3074289E+05    5.8347017E+03   -2.3166924E+04    3.4327917E+05   -5.8347041E+03    3.3074289E+05
   -2.89   800.000    1.559E+01    3.2301960E+05    5.7760794E+03   -2.2953192E+04    3.3686075E+05   -5.7760816E+03    3.2301959E+05
   -2.88   800.000    1.501E+01    3.1579688E+05    5.7101900E+03   -2.2748471E+04    3.3075776E+05   -5.7101922E+03    3.1579688E+05
   -2.87   800.000    1.445E+01    3.0911378E+05    5.6393873E+03   -2.2565980E+04    3.2501550E+05   -5.6393894E+03    3.0911378E+05
   -2.86   800.000    1.392E+01    3.0299230E+05    5.5653002E+03   -2.2417579E+04    3.1966964E+05   -5.5653023E+03    3.0299230E+05
   -2.85   800.000    1.342E+01    2.9743778E+05    5.4886582E+03   -2.2313327E+04    3.1474517E+05   -5.4886601E+03    2.9743777E+05
   -2.84   800.000    1.294E+01    2.9244011E+05    5.4092033E+03   -2.2260983E+04    3.1025570E+05   -5.4092051E+03    2.9244011E+05
   -2.83   800.000    1.249E+01    2.8797575E+05    5.3256979E+03   -2.2265449E+04    3.0620341E+05   -5.3256997E+03    2.8797575E+05
   -2.82   800.000    1.206E+01    2.8401006E+05    5.2360233E+03   -2.2328187E+04    3.0257913E+05   -5.2360250E+03    2.8401006E+05
   -2.81   800.000    1.165E+01    2.8049972E+05    5.1373559E+03   -2.2446635E+04    2.9936269E+05   -5.1373577E+03    2.8049971E+05
   -2.80   800.000    1.126E+01    2.7739493E+05    5.0264001E+03   -2.2613704E+04    2.9652319E+05   -5.0264019E+03    2.7739493E+05
   -2.79   800.000    1.088E+01    2.7464109E+05    4.8996520E+03   -2.2817442E+04    2.9401931E+05   -4.8996538E+03    2.7464109E+05
   -2.78   800.000    1.053E+01    2.7217976E+05    4.7536695E+03   -2.3040946E+04    2.9179942E+05   -4.7536713E+03    2.7217976E+05
   -2.77   800.000    1.018E+01    2.6994900E+05    4.5853272E+03   -2.3262628E+04    2.8980180E+05   -4.5853290E+03    2.6994900E+05
   -2.76   800.000    9.855E+00    2.6788307E+05    4.3920403E+03   -2.3456878E+04    2.8795493E+05   -4.3920421E+03    2.6788307E+05
   -2.75   800.000    9.540E+00    2.6591190E+05    4.1719484E+03   -2.3595166E+04    2.8617815E+05   -4.1719502E+03    2.6591190E+05
   -2.74   800.000    9.237E+00    2.6396040E+05    3.9240583E+03   -2.3647543E+04    2.8438266E+05   -3.9240602E+03    2.6396040E+05
   -2.73   800.000    8.945E+00    2.6194815E+05    3.6483463E+03   -2.3584464E+04    2.8247328E+05   -3.6483482E+03    2.6194815E+05
   -2.72   800.000    8.664E+00    2.5978971E+05    3.3458227E+03   -2.3378797E+04    2.8035071E+05   -3.3458246E+03    2.5978971E+05
   -2.71   800.000    8.392E+00    2.5739571E+05    3.0185625E+03   -2.3007835E+04    2.7791460E+05   -3.0185644E+03    2.5739571E+05
   -2.70   800.000    8.130E+00    2.5467492E+05    2.6696979E+03   -2.2455126E+04    2.7506713E+05   -2.6696998E+03    2.5467492E+05
   -2.69   800.000    7.876E+00    2.5153719E+05    2.3033691E+03   -2.1711914E+04    2.7171701E+05   -2.3033710E+03    2.5153719E+05
   -2.68   800.000    7.630E+00    2.4789713E+05    1.9246278E+03   -2.0778050E+04    2.6778362E+05   -1.9246296E+03    2.4789713E+05
   -2.67   800.000    7.391E+00    2.4367822E+05    1.5392880E+03   -1.9662256E+04    2.6320109E+05   -1.5392898E+03    2.4367822E+05
   -2.66   800.000    7.161E+00    2.3881703E+05    1.1537262E+03   -1.8381715E+04    2.5792191E+05   -1.1537279E+03    2.3881704E+05
   -2.65   800.000    6.938E+00    2.3326714E+05    7.7463601E+02   -1.6961025E+04    2.5191994E+05   -7.7463752E+02    2.3326714E+05
   -2.64   800.000    6.722E+00    2.2700238E+05    4.0875126E+02   -1.5430642E+04    2.4519248E+05   -4.0875262E+02    2.2700238E+05
   -2.63   800.000    6.513E+00    2.2001921E+05    6.2554878E+01   -1.3824972E+04    2.3776145E+05   -6.2556070E+01    2.2001921E+05
   -2.62   800.000    6.311E+00    2.1233793E+05   -2.5800767E+02   -1.2180303E+04    2.2967339E+05    2.5800665E+02    2.1233793E+05
   -2.61   800.000    6.116E+00    2.0400265E+05   -5.4779032E+02   -1.0532782E+04    2.2099854E+05    5.4778949E+02    2.0400265E+05
   -2.60   800.000    5.928E+00    1.9508009E+05   -8.0266653E+02   -8.9165969E+03    2.1182871E+05    8.0266589E+02    1.9508009E+05
   -2.59   800.000    5.748E+00    1.8565720E+05   -1.0196928E+03   -7.3624646E+03    2.0227441E+05    1.0196924E+03    1.8565720E+05
   -2.58   800.000    5.574E+00    1.7583777E+05   -1.1972050E+03   -5.8965107E+03    1.9246100E+05    1.1972048E+03    1.7583778E+05
   -2.57   800.000    5.407E+00    1.6573836E+05   -1.3348404E+03   -4.5395429E+03    1.8252422E+05    1.3348403E+03    1.6573836E+05
   -2.56   800.000    5.246E+00    1.5548362E+05   -1.4334856E+03   -3.3067073E+03    1.7260526E+05    1.4334857E+03    1.5548362E+05
   -2.55   800.000    5.092E+00    1.4520149E+05   -1.4951554E+03   -2.2074867E+03    1.6284563E+05    1.4951556E+03    1.4520149E+05
   -2.54   800.000    4.943E+00    1.3501843E+05   -1.5228127E+03   -1.2459935E+03    1.5338188E+05    1.5228130E+03    1.3501843E+05
   -2.53   800.000    4.801E+00    1.2505507E+05   -1.5201484E+03   -4.2149886E+02    1.4434082E+05    1.5201489E+03    1.2505507E+05
   -2.52   800.000    4.663E+00    1.1542241E+05   -1.4913392E+03    2.7085744E+02    1.3583502E+05    1.4913399E+03    1.1542241E+05
   -2.51   800.000    4.530E+00    1.0621887E+05   -1.4408042E+03    8.3924043E+02    1.2795913E+05    1.4408050E+03    1.0621887E+05
   -2.50   800.000    4.401E+00    9.7528219E+04   -1.3729797E+03    1.2942370E+03    1.2078703E+05    1.3729806E+03    9.7528220E+04
   -2.49   800.000    4.275E+00    8.9418390E+04   -1.2921263E+03    1.6479782E+03    1.1436981E+05    1.2921272E+03    8.9418391E+04
   -2.48   800.000    4.151E+00    8.1941208E+04   -1.2021779E+03    1.9133208E+03    1.0873482E+05    1.2021788E+03    8.1941209E+04
   -2.47   800.000    4.029E+00    7.5132848E+04   -1.1066368E+03    2.1031340E+03    1.0388558E+05    1.1066378E+03    7.5132849E+04
   -2.46   800.000    3.908E+00    6.9014896E+04   -1.0085138E+03    2.2297225E+03    9.9802702E+04    1.0085149E+03    6.9014897E+04
   -2.45   800.000    3.787E+00    6.3595848E+04   -9.1030777E+02    2.3044036E+03    9.6445639E+04    9.1030891E+02    6.3595849E+04
   -2.44   800.000    3.665E+00    5.8872859E+04   -8.1401752E+02    2.3372392E+03    9.3755316E+04    8.1401871E+02    5.8872860E+04
   -2.43   800.000    3.543E+00    5.4833606E+04   -7.2117785E+02    2.3369119E+03    9.1657528E+04    7.2117908E+02    5.4833606E+04
   -2.42   800.000    3.418E+00    5.1458122E+04   -6.3291046E+02    2.3107217E+03    9.0067014E+04    6.3291172E+02    5.1458123E+04
   -2.41   800.000    3.291E+00    4.8720542E+04   -5.4998282E+02    2.2646739E+03    8.8892060E+04    5.4998411E+02    4.8720543E+04
   -2.40   800.000    3.162E+00    4.6590692E+04   -4.7286900E+02    2.2036257E+03    8.8039438E+04    4.7287031E+02    4.6590693E+04
   -2.39   800.000    3.030E+00    4.5035527E+04   -4.0180794E+02    2.1314594E+03    8.7419413E+04    4.0180925E+02    4.5035528E+04
   -2.38   800.000    2.895E+00    4.4020441E+04   -3.3685666E+02    2.0512564E+03    8.6950543E+04    3.3685797E+02    4.4020442E+04
   -2.37   800.000    2.757E+00    4.3510489E+04   -2.7793677E+02    1.9654506E+03    8.6563951E+04    2.7793806E+02    4.3510491E+04
   -2.36   800.000    2.617E+00    4.3471587E+04   -2.2487385E+02    1.8759509E+03    8.6206793E+04    2.2487512E+02    4.3471589E+04
   -2.35   800.000    2.474E+00    4.3871724E+04   -1.7742974E+02    1.7842290E+03    8.5844713E+04    1.7743096E+02    4.3871726E+04
   -2.34   800.000    2.329E+00    4.4682236E+04   -1.3532807E+02    1.6913767E+03    8.5463151E+04    1.3532924E+02    4.4682239E+04
   -2.33   800.000    2.183E+00    4.5879138E+04   -9.8273741E+01    1.5981426E+03    8.5067500E+04    9.8274834E+01    4.5879141E+04
   -2.32   800.000    2.036E+00    4.7444475E+04   -6.5966717E+01    1.5049585E+03    8.4682193E+04    6.5967723E+01    4.7444479E+04
   -2.31   800.000    1.888E+00    4.9367635E+04   -3.8110946E+01    1.4119682E+03    8.4348919E+04    3.8111851E+01    4.9367639E+04
   -2.30   800.000    1.741E+00    5.1646518E+04   -1.4419044E+01    1.3190658E+03    8.4124177E+04    1.4419833E+01    5.1646522E+04
   -2.29   800.000    1.595E+00    5.4288446E+04    5.3863744E+00    1.2259482E+03    8.4076444E+04   -5.3857145E+00    5.4288451E+04
   -2.28   800.000    1.451E+00    5.7310703E+04    2.1573755E+01    1.1321804E+03    8.4283169E+04   -2.1573238E+01    5.7310709E+04
   -2.27   800.000    1.309E+00    6.0740611E+04    3.4405006E+01    1.0372700E+03    8.4827808E+04   -3.4404643E+01    6.0740617E+04
   -2.26   800.000    1.170E+00    6.4615076E+04    4.4138218E+01    9.4074254E+02    8.5797019E+04   -4.4138020E+01    6.4615083E+04
   -2.25   800.000    1.034E+00    6.8979611E+04    5.1029836E+01    8.4221110E+02    8.7278115E+04   -5.1029813E+01    6.8979618E+04
   -2.24   800.000    9.016E-01    7.3886871E+04    5.5335693E+01    7.4143258E+02    8.9356807E+04   -5.5335853E+01    7.3886880E+04
   -2.23   800.000    7.732E-01    7.9394798E+04    5.7310625E+01    6.3834671E+02    9.2115245E+04   -5.7310973E+01    7.9394807E+04
   -2.22   800.000    6.486E-01    8.5564498E+04    5.7206776E+01    5.3309520E+02    9.5630356E+04   -5.7207317E+01    8.5564508E+04
   -2.21   800.000    5.280E-01    9.2458022E+04    5.5270978E+01    4.2602073E+02    9.9972456E+04   -5.5271715E+01    9.2458033E+04
   -2.20   800.000    4.112E-01    1.0013617E+05    5.1741764E+01    3.1764729E+02    1.0520414E+05   -5.1742699E+01    1.0013618E+05
   -2.19   800.000    2.979E-01    1.0865646E+05    4.6846645E+01    2.0864401E+02    1.1137941E+05   -4.6847779E+01    1.0865648E+05
   -2.18   800.000    1.880E-01    1.1807145E+05    4.0800191E+01    9.9775488E+01    1.1854311E+05   -4.0801526E+01    1.1807146E+05
   -2.17   800.000    8.092E-02    1.2842725E+05    3.3803303E+01   -8.1575861E+00    1.2673055E+05   -3.3804841E+01    1.2842727E+05
   -2.16   800.000   -2.361E-02    1.3976258E+05    2.6043812E+01   -1.1438297E+02    1.3596745E+05   -2.6045557E+01    1.3976260E+05
   -2.15   800.000   -1.261E-01    1.5210806E+05    1.7698389E+01   -2.1822120E+02    1.4627005E+05   -1.7700347E+01    1.5210808E+05
   -2.14   800.000   -2.270E-01    1.6548591E+05    8.9355121E+00   -3.1914420E+02    1.5764550E+05   -8.9376939E+00    1.6548593E+05
   -2.13   800.000   -3.268E-01    1.7990983E+05   -8.0835995E-02   -4.1682376E+02    1.7009242E+05    7.8415784E-02    1.7990985E+05
   -2.12   800.000   -4.260E-01    1.9538517E+05   -9.1871591E+00   -5.1116722E+02    1.8360166E+05    9.1844813E+00    1.9538520E+05
   -2.11   800.000   -5.250E-01    2.1190916E+05   -1.8216573E+01   -6.0234073E+02    1.9815711E+05    1.8213613E+01    2.1190919E+05
   -2.10   800.000   -6.243E-01    2.2947118E+05   -2.6995524E+01   -6.9078301E+02    2.1373667E+05    2.6992254E+01    2.2947120E+05
   -2.09   800.000   -7.243E-01    2.4805301E+05   -3.5341601E+01   -7.7721395E+02    2.3031308E+05    3.5337989E+01    2.4805304E+05
   -2.08   800.000   -8.254E-01    2.6762912E+05   -4.3062988E+01   -8.6264182E+02    2.4785472E+05    4.3058996E+01    2.6762915E+05
   -2.07   800.000   -9.279E-01    2.8816679E+05   -4.9960139E+01   -9.4837016E+02    2.6632617E+05    4.9955731E+01    2.8816682E+05
   -2.06   800.000   -1.032E+00    3.0962623E+05   -5.5830301E+01   -1.0360017E+03    2.8568850E+05    5.5825439E+01    3.0962627E+05
   -2.05   800.000   -1.138E+00    3.3196075E+05   -6.0475314E+01   -1.1274328E+03    3.0589923E+05    6.0469963E+01    3.3196078E+05
   -2.04   800.000   -1.247E+00    3.5511688E+05   -6.3712779E+01   -1.2248290E+03    3.2691212E+05    6.3706908E+01    3.5511692E+05
   -2.03   800.000   -1.358E+00    3.7903476E+05   -6.5389957E+01   -1.3305733E+03    3.4867670E+05    6.5383541E+01    3.7903480E+05
   -2.02   800.000   -1.472E+00    4.0364864E+05   -6.5398759E+01   -1.4471801E+03    3.7113800E+05    6.5391783E+01    4.0364868E+05
   -2.01   800.000   -1.589E+00    4.2888760E+05   -6.3688988E+01   -1.5771728E+03    3.9423644E+05    6.3681447E+01    4.2888764E+05
   -2.00   800.000   -1.708E+00    4.5467656E+05   -6.0275963E+01   -1.7229291E+03    4.1790831E+05    6.0267862E+01    4.5467661E+05
   -1.99   800.000   -1.831E+00    4.8093744E+05   -5.5238157E+01   -1.8865056E+03    4.4208684E+05    5.5229518E+01    4.8093749E+05
   -1.98   800.000   -1.957E+00    5.0759034E+05   -4.8701042E+01   -2.0694571E+03    4.6670386E+05    4.8691897E+01    5.0759039E+05
   -1.97   800.000   -2.086E+00    5.3455470E+05   -4.0805111E+01   -2.2726723E+03    4.9169199E+05    4.0795506E+01    5.3455475E+05
   -1.96   800.000   -2.218E+00    5.6175019E+05   -3.1659124E+01   -2.4962495E+03    5.1698683E+05    3.1649117E+01    5.6175024E+05
   -1.95   800.000   -2.354E+00    5.8909728E+05   -2.1283453E+01   -2.7394304E+03    5.4252893E+05    2.1273111E+01    5.8909734E+05
   -1.94   800.000   -2.493E+00    6.1651743E+05   -9.5522358E+00   -3.0006065E+03    5.6826499E+05    9.5416353E+00    6.1651748E+05
   -1.93   800.000   -2.635E+00    6.4393290E+05    3.8540947E+00   -3.2773961E+03    5.9414798E+05   -3.8648735E+00    6.4393296E+05
   -1.92   800.000   -2.781E+00    6.7126661E+05    1.9473422E+01   -3.5667815E+03    6.2013605E+05   -1.9484296E+01    6.7126667E+05
   -1.91   800.000   -2.930E+00    6.9844202E+05    3.8052775E+01   -3.8652817E+03    6.4619032E+05   -3.8063661E+01    6.9844208E+05
   -1.90   800.000   -3.083E+00    7.2538361E+05    6.0498744E+01   -4.1691304E+03    6.7227189E+05   -6.0509563E+01    7.2538367E+05
   -1.89   800.000   -3.238E+00    7.5201816E+05    8.7787386E+01   -4.4744328E+03    6.9833870E+05   -8.7798063E+01    7.5201822E+05
   -1.88   800.000   -3.397E+00    7.7827693E+05    1.2084130E+02   -4.7772844E+03    7.2434263E+05   -1.2085177E+02    7.7827699E+05
   -1.87   800.000   -3.560E+00    8.0409864E+05    1.6038916E+02   -5.0738495E+03    7.5022770E+05   -1.6039936E+02    8.0409870E+05
   -1.86   800.000   -3.725E+00    8.2943295E+05    2.0682882E+02   -5.3604117E+03    7.7592950E+05   -2.0683871E+02    8.2943301E+05
   -1.85   800.000   -3.894E+00    8.5424385E+05    2.6011716E+02   -5.6334215E+03    8.0137621E+05   -2.6012668E+02    8.5424391E+05
   -1.84   800.000   -4.066E+00    8.7851216E+05    3.1970804E+02   -5.8895631E+03    8.2649099E+05   -3.1971717E+02    8.7851223E+05
   -1.83   800.000   -4.241E+00    9.0223655E+05    3.8455286E+02   -6.1258617E+03    8.5119533E+05   -3.8456157E+02    9.0223662E+05
   -1.82   800.000   -4.419E+00    9.2543247E+05    4.5316799E+02   -6.3398317E+03    8.7541292E+05   -4.5317627E+02    9.2543254E+05
   -1.81   800.000   -4.599E+00    9.4812881E+05    5.2376180E+02   -6.5296579E+03    8.9907326E+05   -5.2376962E+02    9.4812888E+05
   -1.80   800.000   -4.783E+00    9.7036247E+05    5.9440289E+02   -6.6943830E+03    9.2211447E+05   -5.9441025E+02    9.7036254E+05
   -1.79   800.000   -4.970E+00    9.9217143E+05    6.6320366E+02   -6.8340743E+03    9.4448501E+05   -6.6321055E+02    9.9217150E+05
   -1.78   800.000   -5.159E+00    1.0135873E+06    7.2849098E+02   -6.9499416E+03    9.6614385E+05   -7.2849739E+02    1.0135873E+06
   -1.77   800.000   -5.351E+00    1.0346283E+06    7.8893899E+02   -7.0443908E+03    9.8705938E+05   -7.8894491E+02    1.0346283E+06
   -1.76   800.000   -5.545E+00    1.0552940E+06    8.4364800E+02   -7.1210105E+03    1.0072073E+06   -8.4365344E+02    1.0552941E+06
   -1.75   800.000   -5.743E+00    1.0755630E+06    8.9216560E+02   -7.1844984E+03    1.0265677E+06   -8.9217056E+02    1.0755631E+06
   -1.74   800.000   -5.943E+00    1.0953930E+06    9.3445880E+02   -7.2405422E+03    1.0451228E+06   -9.3446329E+02    1.0953930E+06
   -1.73   800.000   -6.145E+00    1.1147250E+06    9.7085613E+02   -7.2956679E+03    1.0628543E+06   -9.7086016E+02    1.1147250E+06
   -1.72   800.000   -6.350E+00    1.1334899E+06    1.0019825E+03   -7.3570620E+03    1.0797422E+06   -1.0019861E+03    1.1334900E+06
   -1.71   800.000   -6.558E+00    1.1516176E+06    1.0287061E+03   -7.4323673E+03    1.0957656E+06   -1.0287093E+03    1.1516176E+06
   -1.70   800.000   -6.768E+00    1.1690455E+06    1.0521076E+03   -7.5294468E+03    1.1109035E+06   -1.0521104E+03    1.1690455E+06
   -1.69   800.000   -6.981E+00    1.1857280E+06    1.0734677E+03   -7.6561106E+03    1.1251372E+06   -1.0734700E+03    1.1857281E+06
   -1.68   800.000   -7.196E+00    1.2016427E+06    1.0942595E+03   -7.8198097E+03    1.1384541E+06   -1.0942613E+03    1.2016428E+06
   -1.67   800.000   -7.414E+00    1.2167942E+06    1.1161266E+03   -8.0273063E+03    1.1508504E+06   -1.1161280E+03    1.2167943E+06
   -1.66   800.000   -7.635E+00    1.2312142E+06    1.1408315E+03   -8.2843449E+03    1.1623341E+06   -1.1408324E+03    1.2312143E+06
   -1.65   800.000   -7.858E+00    1.2449583E+06    1.1701675E+03   -8.5953532E+03    1.1729276E+06   -1.1701678E+03    1.2449583E+06
   -1.64   800.000   -8.084E+00    1.2581007E+06    1.2058419E+03   -8.9632023E+03    1.1826685E+06   -1.2058416E+03    1.2581007E+06
   -1.63   800.000   -8.312E+00    1.2707272E+06    1.2493478E+03   -9.3890532E+03    1.1916103E+06   -1.2493468E+03    1.2707273E+06
   -1.62   800.000   -8.544E+00    1.2829284E+06    1.3018453E+03   -9.8723048E+03    1.1998225E+06   -1.3018436E+03    1.2829284E+06
   -1.61   800.000   -8.778E+00    1.2947932E+06    1.3640725E+03   -1.0410648E+04    1.2073900E+06   -1.3640699E+03    1.2947932E+06
   -1.60   800.000   -9.014E+00    1.3064054E+06    1.4362979E+03   -1.1000219E+04    1.2144125E+06   -1.4362946E+03    1.3064055E+06
   -1.59   800.000   -9.254E+00    1.3178416E+06    1.5183188E+03   -1.1635826E+04    1.2210044E+06   -1.5183146E+03    1.3178417E+06
   -1.58   800.000   -9.497E+00    1.3291712E+06    1.6095004E+03   -1.2311225E+04    1.2272938E+06   -1.6094952E+03    1.3291712E+06
   -1.57   800.000   -9.742E+00    1.3404575E+06    1.7088504E+03   -1.3019400E+04    1.2334218E+06   -1.7088443E+03    1.3404576E+06
   -1.56   800.000   -9.991E+00    1.3517602E+06    1.8151191E+03   -1.3752825E+04    1.2395414E+06   -1.8151122E+03    1.3517603E+06
   -1.55   800.000   -1.024E+01    1.3631366E+06    1.9269141E+03   -1.4503673E+04    1.2458142E+06   -1.9269062E+03    1.3631367E+06
   -1.54   800.000   -1.050E+01    1.3746431E+06    2.0428151E+03   -1.5263970E+04    1.2524075E+06   -2.0428064E+03    1.3746432E+06
   -1.53   800.000   -1.075E+01    1.3863351E+06    2.1614728E+03   -1.6025730E+04    1.2594884E+06   -2.1614632E+03    1.3863352E+06
   -1.52   800.000   -1.101E+01    1.3982671E+06    2.2816670E+03   -1.6781086E+04    1.2672186E+06   -2.2816567E+03    1.3982672E+06
   -1.51   800.000   -1.128E+01    1.4104922E+06    2.4023058E+03   -1.7522487E+04    1.2757478E+06   -2.4022947E+03    1.4104923E+06
   -1.50   800.000   -1.154E+01    1.4230617E+06    2.5223492E+03   -1.8242982E+04    1.2852075E+06   -2.5223374E+03    1.4230618E+06
   -1.49   800.000   -1.181E+01    1.4360254E+06    2.6406611E+03   -1.8936607E+04    1.2957067E+06   -2.6406487E+03    1.4360254E+06
   -1.48   800.000   -1.209E+01    1.4494318E+06    2.7558101E+03   -1.9598831E+04    1.3073274E+06   -2.7557970E+03    1.4494319E+06
   -1.47   800.000   -1.236E+01    1.4633289E+06    2.8658589E+03   -2.0227021E+04    1.3201231E+06   -2.8658452E+03    1.4633290E+06
   -1.46   800.000   -1.264E+01    1.4777637E+06    2.9681940E+03   -2.0820806E+04    1.3341175E+06   -2.9681798E+03    1.4777637E+06
   -1.45   800.000   -1.292E+01    1.4927806E+06    3.0594433E+03   -2.1382268E+04    1.3493052E+06   -3.0594285E+03    1.4927807E+06
   -1.44   800.000   -1.321E+01    1.5084192E+06    3.1355157E+03   -2.1915891E+04    1.3656534E+06   -3.1355003E+03    1.5084193E+06
   -1.43   800.000   -1.350E+01    1.5247095E+06    3.1917706E+03   -2.2428218E+04    1.3831039E+06   -3.1917547E+03    1.5247095E+06
   -1.42   800.000   -1.379E+01    1.5416669E+06    3.2233011E+03   -2.2927246E+04    1.4015767E+06   -3.2232847E+03    1.5416669E+06
   -1.41   800.000   -1.408E+01    1.5592867E+06    3.2252926E+03   -2.3421612E+04    1.4209737E+06   -3.2252757E+03    1.5592867E+06
   -1.40   800.000   -1.438E+01    1.5775397E+06    3.1934101E+03   -2.3919683E+04    1.4411840E+06   -3.1933928E+03    1.5775397E+06
   -1.39   800.000   -1.468E+01    1.5963695E+06    3.1241718E+03   -2.4428658E+04    1.4620888E+06   -3.1241541E+03    1.5963695E+06
   -1.38   800.000   -1.498E+01    1.6156921E+06    3.0152737E+03   -2.4953825E+04    1.4835678E+06   -3.0152557E+03    1.6156921E+06
   -1.37   800.000   -1.529E+01    1.6353998E+06    2.8658457E+03   -2.5498085E+04    1.5055037E+06   -2.8658275E+03    1.6353998E+06
   -1.36   800.000   -1.560E+01    1.6553670E+06    2.6766256E+03   -2.6061804E+04    1.5277870E+06   -2.6766073E+03    1.6553670E+06
   -1.35   800.000   -1.591E+01    1.6754605E+06    2.4500419E+03   -2.6643026E+04    1.5503187E+06   -2.4500235E+03    1.6754606E+06
   -1.34   800.000   -1.623E+01    1.6955512E+06    2.1901942E+03   -2.7238021E+04    1.5730116E+06   -2.1901759E+03    1.6955513E+06
   -1.33   800.000   -1.654E+01    1.7155280E+06    1.9027180E+03   -2.7842057E+04    1.5957897E+06   -1.9026998E+03    1.7155280E+06
   -1.32   800.000   -1.687E+01    1.7353112E+06    1.5945191E+03   -2.8450303E+04    1.6185873E+06   -1.5945011E+03    1.7353112E+06
   -1.31   800.000   -1.719E+01    1.7548659E+06    1.2733744E+03   -2.9058693E+04    1.6413468E+06   -1.2733567E+03    1.7548659E+06
   -1.30   800.000   -1.752E+01    1.7742109E+06    9.4741047E+02   -2.9664643E+04    1.6640174E+06   -9.4739301E+02    1.7742109E+06
   -1.29   800.000   -1.785E+01    1.7934249E+06    6.2449047E+02   -3.0267519E+04    1.6865556E+06   -6.2447337E+02    1.7934249E+06
   -1.28   800.000   -1.818E+01    1.8126456E+06    3.1156303E+02   -3.0868794E+04    1.7089264E+06   -3.1154631E+02    1.8126456E+06
   -1.27   800.000   -1.851E+01    1.8320633E+06    1.4039780E+01   -3.1471911E+04    1.7311075E+06   -1.4023443E+01    1.8320633E+06
   -1.26   800.000   -1.885E+01    1.8519077E+06   -2.6472421E+02   -3.2081893E+04    1.7530945E+06    2.6474016E+02    1.8519077E+06
   -1.25   800.000   -1.919E+01    1.8724291E+06   -5.2377779E+02   -3.2704777E+04    1.7749078E+06    5.2379335E+02    1.8724291E+06
   -1.24   800.000   -1.954E+01    1.8938763E+06   -7.6469504E+02   -3.3346973E+04    1.7965996E+06    7.6471022E+02    1.8938763E+06
   -1.23   800.000   -1.989E+01    1.9164736E+06   -9.9144124E+02   -3.4014645E+04    1.8182588E+06    9.9145606E+02    1.9164736E+06
   -1.22   800.000   -2.024E+01    1.9403988E+06   -1.2099853E+03   -3.4713160E+04    1.8400143E+06    1.2099998E+03    1.9403988E+06
   -1.21   800.000   -2.060E+01    1.9657669E+06   -1.4276942E+03   -3.5446683E+04    1.8620343E+06    1.4277084E+03    1.9657669E+06
   -1.20   800.000   -2.096E+01    1.9926189E+06   -1.6525751E+03   -3.6217898E+04    1.8845203E+06    1.6525891E+03    1.9926189E+06
   -1.19   800.000   -2.132E+01    2.0209196E+06   -1.8924550E+03   -3.7027873E+04    1.9076968E+06    1.8924688E+03    2.0209196E+06
   -1.18   800.000   -2.169E+01    2.0505610E+06   -2.1541968E+03   -3.7876050E+04    1.9317962E+06    2.1542104E+03    2.0505610E+06
   -1.17   800.000   -2.207E+01    2.0813732E+06   -2.4430445E+03   -3.8760332E+04    1.9570402E+06    2.4430581E+03    2.0813732E+06
   -1.16   800.000   -2.245E+01    2.1131384E+06   -2.7621718E+03   -3.9677298E+04    1.9836190E+06    2.7621854E+03    2.1131384E+06
   -1.15   800.000   -2.283E+01    2.1456079E+06   -3.1124713E+03   -4.0622533E+04    2.0116721E+06    3.1124849E+03    2.1456079E+06
   -1.14   800.000   -2.322E+01    2.1785187E+06   -3.4925859E+03   -4.1591102E+04    2.0412698E+06    3.4925995E+03    2.1785188E+06
   -1.13   800.000   -2.362E+01    2.2116088E+06   -3.8991411E+03   -4.2578178E+04    2.0724008E+06    3.8991548E+03    2.2116088E+06
   -1.12   800.000   -2.402E+01    2.2446298E+06   -4.3271124E+03   -4.3579815E+04    2.1049656E+06    4.3271262E+03    2.2446298E+06
   -1.11   800.000   -2.442E+01    2.2773573E+06   -4.7702424E+03   -4.4593831E+04    2.1387774E+06    4.7702562E+03    2.2773573E+06
   -1.10   800.000   -2.483E+01    2.3095980E+06   -5.2214291E+03   -4.5620711E+04    2.1735708E+06    5.2214428E+03    2.3095980E+06
   -1.09   800.000   -2.525E+01    2.3411946E+06   -5.6730285E+03   -4.6664459E+04    2.2090179E+06    5.6730421E+03    2.3411946E+06
   -1.08   800.000   -2.566E+01    2.3720276E+06   -6.1170465E+03   -4.7733252E+04    2.2447500E+06    6.1170598E+03    2.3720276E+06
   -1.07   800.000   -2.609E+01    2.4020157E+06   -6.5452314E+03   -4.8839797E+04    2.2803838E+06    6.5452443E+03    2.4020157E+06
   -1.06   800.000   -2.652E+01    2.4311137E+06   -6.9491120E+03   -5.0001289E+04    2.3155485E+06    6.9491243E+03    2.4311137E+06
   -1.05   800.000   -2.695E+01    2.4593086E+06   -7.3200388E+03   -5.1238927E+04    2.3499120E+06    7.3200504E+03    2.4593086E+06
   -1.04   800.000   -2.739E+01    2.4866145E+06   -7.6492847E+03   -5.2576980E+04    2.3832031E+06    7.6492954E+03    2.4866146E+06
   -1.03   800.000   -2.783E+01    2.5130665E+06   -7.9282406E+03   -5.4041473E+04    2.4152270E+06    7.9282502E+03    2.5130665E+06
   -1.02   800.000   -2.827E+01    2.5387129E+06   -8.1487091E+03   -5.5658612E+04    2.4458735E+06    8.1487174E+03    2.5387130E+06
   -1.01   800.000   -2.871E+01    2.5636092E+06   -8.3032654E+03   -5.7453081E+04    2.4751162E+06    8.3032722E+03    2.5636092E+06
   -1.00   800.000   -2.916E+01    2.5878105E+06   -8.3856249E+03   -5.9446389E+04    2.5030037E+06    8.3856301E+03    2.5878105E+06
   -0.99   800.000   -2.961E+01    2.6113665E+06   -8.3909459E+03   -6.1655384E+04    2.5296442E+06    8.3909493E+03    2.6113665E+06
   -0.98   800.000   -3.007E+01    2.6343161E+06   -8.3159995E+03   -6.4091040E+04    2.5551850E+06    8.3160010E+03    2.6343161E+06
   -0.97   800.000   -3.052E+01    2.6566843E+06   -8.1591635E+03   -6.6757554E+04    2.5797904E+06    8.1591630E+03    2.6566844E+06
   -0.96   800.000   -3.097E+01    2.6784804E+06   -7.9202340E+03   -6.9651761E+04    2.6036210E+06    7.9202315E+03    2.6784804E+06
   -0.95   800.000   -3.143E+01    2.6996967E+06   -7.6000900E+03   -7.2762835E+04    2.6268162E+06    7.6000853E+03    2.6996968E+06
   -0.94   800.000   -3.189E+01    2.7203109E+06   -7.2002835E+03   -7.6072224E+04    2.6494823E+06    7.2002767E+03    2.7203109E+06
   -0.93   800.000   -3.234E+01    2.7402885E+06   -6.7226492E+03   -7.9553762E+04    2.6716873E+06    6.7226402E+03    2.7402886E+06
   -0.92   800.000   -3.280E+01    2.7595885E+06   -6.1690273E+03   -8.3173921E+04    2.6934628E+06    6.1690161E+03    2.7595885E+06
   -0.91   800.000   -3.326E+01    2.7781699E+06   -5.5411696E+03   -8.6892136E+04    2.7148105E+06    5.5411562E+03    2.7781699E+06
   -0.90   800.000   -3.372E+01    2.7960004E+06   -4.8408586E+03   -9.0661192E+04    2.7357140E+06    4.8408429E+03    2.7960004E+06
   -0.89   800.000   -3.417E+01    2.8130647E+06   -4.0702219E+03   -9.4427659E+04    2.7561511E+06    4.0702040E+03    2.8130648E+06
   -0.88   800.000   -3.463E+01    2.8293734E+06   -3.2321840E+03   -9.8132444E+04    2.7761075E+06    3.2321640E+03    2.8293735E+06
   -0.87   800.000   -3.509E+01    2.8449691E+06   -2.3309740E+03   -1.0171152E+05    2.7955870E+06    2.3309518E+03    2.8449691E+06
   -0.86   800.000   -3.554E+01    2.8599303E+06   -1.3726048E+03   -1.0509700E+05    2.8146194E+06    1.3725804E+03    2.8599303E+06
   -0.85   800.000   -3.600E+01    2.8743715E+06   -3.6525854E+02   -1.0821862E+05    2.8332639E+06    3.6523197E+02    2.8743715E+06
   -0.84   800.000   -3.645E+01    2.8884386E+06    6.8046771E+02   -1.1100585E+05    2.8516073E+06   -6.8049651E+02    2.8884386E+06
   -0.83   800.000   -3.691E+01    2.9023005E+06    1.7514739E+03   -1.1339048E+05    2.8697591E+06   -1.7515050E+03    2.9023006E+06
   -0.82   800.000   -3.736E+01    2.9161368E+06    2.8322349E+03   -1.1530973E+05    2.8878419E+06   -2.8322683E+03    2.9161369E+06
   -0.81   800.000   -3.781E+01    2.9301235E+06    3.9050470E+03   -1.1670958E+05    2.9059797E+06   -3.9050827E+03    2.9301235E+06
   -0.80   800.000   -3.826E+01    2.9444183E+06    4.9504498E+03   -1.1754810E+05    2.9242848E+06   -4.9504878E+03    2.9444183E+06
   -0.79   800.000   -3.872E+01    2.9591475E+06    5.9478270E+03   -1.1779834E+05    2.9428447E+06   -5.9478674E+03    2.9591475E+06
   -0.78   800.000   -3.916E+01    2.9743955E+06    6.8761767E+03   -1.1745057E+05    2.9617107E+06   -6.8762195E+03    2.9743955E+06
   -0.77   800.000   -3.961E+01    2.9901981E+06    7.7150183E+03   -1.1651348E+05    2.9808901E+06   -7.7150634E+03    2.9901982E+06
   -0.76   800.000   -4.006E+01    3.0065402E+06    8.4453679E+03   -1.1501422E+05    3.0003414E+06   -8.4454153E+03    3.0065402E+06
   -0.75   800.000   -4.051E+01    3.0233568E+06    9.0506891E+03   -1.1299707E+05    3.0199745E+06   -9.0507388E+03    3.0233569E+06
   -0.74   800.000   -4.095E+01    3.0405368E+06    9.5177117E+03   -1.1052101E+05    3.0396540E+06   -9.5177637E+03    3.0405368E+06
   -0.73   800.000   -4.140E+01    3.0579274E+06    9.8370265E+03   -1.0765595E+05    3.0592052E+06   -9.8370807E+03    3.0579274E+06
   -0.72   800.000   -4.184E+01    3.0753397E+06    1.0003400E+04   -1.0447833E+05    3.0784217E+06   -1.0003456E+04    3.0753397E+06
   -0.71   800.000   -4.228E+01    3.0925524E+06    1.0015803E+04   -1.0106615E+05    3.0970731E+06   -1.0015861E+04    3.0925524E+06
   -0.70   800.000   -4.272E+01    3.1093160E+06    9.8772018E+03   -9.7494000E+04    3.1149108E+06   -9.8772624E+03    3.1093160E+06
   -0.69   800.000   -4.316E+01    3.1253559E+06    9.5941859E+03   -9.3828752E+04    3.1316741E+06   -9.5942484E+03    3.1253560E+06
   -0.68   800.000   -4.360E+01    3.1403774E+06    9.1765158E+03   -9.0126180E+04    3.1470942E+06   -9.1765802E+03    3.1403775E+06
   -0.67   800.000   -4.404E+01    3.1540718E+06    8.6366607E+03   -8.6429083E+04    3.1608988E+06   -8.6367268E+03    3.1540719E+06
   -0.66   800.000   -4.448E+01    3.1661261E+06    7.9893522E+03   -8.2767037E+04    3.1728182E+06   -7.9894200E+03    3.1661262E+06
   -0.65   800.000   -4.492E+01    3.1762358E+06    7.2511488E+03   -7.9157807E+04    3.1825922E+06   -7.2512181E+03    3.1762358E+06
   -0.64   800.000   -4.536E+01    3.1841198E+06    6.4399801E+03   -7.5610128E+04    3.1899800E+06   -6.4400509E+03    3.1841199E+06
   -0.63   800.000   -4.580E+01    3.1895376E+06    5.5746351E+03   -7.2127419E+04    3.1947713E+06   -5.5747072E+03    3.1895376E+06
   -0.62   800.000   -4.624E+01    3.1923043E+06    4.6741752E+03   -6.8711795E+04    3.1967978E+06   -4.6742484E+03    3.1923044E+06
   -0.61   800.000   -4.668E+01    3.1923041E+06    3.7572826E+03   -6.5367748E+04    3.1959424E+06   -3.7573568E+03    3.1923041E+06
   -0.60   800.000   -4.712E+01    3.1894975E+06    2.8415878E+03   -6.2104927E+04    3.1921463E+06   -2.8416629E+03    3.1894975E+06
   -0.59   800.000   -4.757E+01    3.1839229E+06    1.9430399E+03   -5.8939635E+04    3.1854107E+06   -1.9431157E+03    3.1839230E+06
   -0.58   800.000   -4.801E+01    3.1756919E+06    1.0753875E+03   -5.5894886E+04    3.1757935E+06   -1.0754637E+03    3.1756920E+06
   -0.57   800.000   -4.846E+01    3.1649776E+06    2.4982028E+02   -5.2999144E+04    3.1634017E+06   -2.4989668E+02    3.1649777E+06
   -0.56   800.000   -4.891E+01    3.1520003E+06   -5.2521150E+02   -5.0284069E+04    3.1483813E+06    5.2513515E+02    3.1520004E+06
   -0.55   800.000   -4.936E+01    3.1370097E+06   -1.2440209E+03   -4.7781741E+04    3.1309052E+06    1.2439449E+03    3.1370098E+06
   -0.54   800.000   -4.982E+01    3.1202689E+06   -1.9036010E+03   -4.5521873E+04    3.1111635E+06    1.9035257E+03    3.1202690E+06
   -0.53   800.000   -5.028E+01    3.1020388E+06   -2.5034976E+03   -4.3529479E+04    3.0893555E+06    2.5034232E+03    3.1020389E+06
   -0.52   800.000   -5.074E+01    3.0825674E+06   -3.0456926E+03   -4.1823296E+04    3.0656865E+06    3.0456195E+03    3.0825675E+06
   -0.51   800.000   -5.121E+01    3.0620824E+06   -3.5345313E+03   -4.0415122E+04    3.0403680E+06    3.5344598E+03    3.0620825E+06
   -0.50   800.000   -5.169E+01    3.0407879E+06   -3.9766912E+03   -3.9310005E+04    3.0136209E+06    3.9766215E+03    3.0407880E+06
   -0.49   800.000   -5.217E+01    3.0188647E+06   -4.3811604E+03   -3.8507111E+04    2.9856802E+06    4.3810927E+03    3.0188649E+06
   -0.48   800.000   -5.265E+01    2.9964738E+06   -4.7591679E+03   -3.8000981E+04    2.9567991E+06    4.7591025E+03    2.9964739E+06
   -0.47   800.000   -5.314E+01    2.9737605E+06   -5.1239994E+03   -3.7782909E+04    2.9272510E+06    5.1239364E+03    2.9737607E+06
   -0.46   800.000   -5.364E+01    2.9508608E+06   -5.4906351E+03   -3.7842179E+04    2.8973274E+06    5.4905745E+03    2.9508609E+06
   -0.45   800.000   -5.415E+01    2.9279061E+06   -5.8751668E+03   -3.8167048E+04    2.8673327E+06    5.8751087E+03    2.9279062E+06
   -0.44   800.000   -5.467E+01    2.9050272E+06   -6.2939836E+03   -3.8745406E+04    2.8375734E+06    6.2939278E+03    2.9050273E+06
   -0.43   800.000   -5.519E+01    2.8823561E+06   -6.7627538E+03   -3.9565182E+04    2.8083459E+06    6.7627003E+03    2.8823562E+06
   -0.42   800.000   -5.572E+01    2.8600249E+06   -7.2952743E+03   -4.0614559E+04    2.7799206E+06    7.2952228E+03    2.8600250E+06
   -0.41   800.000   -5.627E+01    2.8381609E+06   -7.9022935E+03   -4.1882127E+04    2.7525278E+06    7.9022438E+03    2.8381610E+06
   -0.40   800.000   -5.682E+01    2.8168807E+06   -8.5904423E+03   -4.3356995E+04    2.7263445E+06    8.5903942E+03    2.8168809E+06
   -0.39   800.000   -5.738E+01    2.7962816E+06   -9.3614135E+03   -4.5028927E+04    2.7014855E+06    9.3613667E+03    2.7962817E+06
   -0.38   800.000   -5.795E+01    2.7764331E+06   -1.0211518E+04   -4.6888425E+04    2.6779986E+06    1.0211472E+04    2.7764332E+06
   -0.37   800.000   -5.853E+01    2.7573712E+06   -1.1131710E+04   -4.8926742E+04    2.6558664E+06    1.1131665E+04    2.7573713E+06
   -0.36   800.000   -5.912E+01    2.7390938E+06   -1.2108116E+04   -5.1135716E+04    2.6350124E+06    1.2108071E+04    2.7390939E+06
   -0.35   800.000   -5.972E+01    2.7215616E+06   -1.3123037E+04   -5.3507389E+04    2.6153134E+06    1.3122994E+04    2.7215617E+06
   -0.34   800.000   -6.033E+01    2.7047018E+06   -1.4156329E+04   -5.6033358E+04    2.5966140E+06    1.4156285E+04    2.7047019E+06
   -0.33   800.000   -6.094E+01    2.6884164E+06   -1.5186992E+04   -5.8703894E+04    2.5787438E+06    1.5186948E+04    2.6884165E+06
   -0.32   800.000   -6.157E+01    2.6725919E+06   -1.6194820E+04   -6.1506879E+04    2.5615350E+06    1.6194777E+04    2.6725920E+06
   -0.31   800.000   -6.221E+01    2.6571113E+06   -1.7161906E+04   -6.4426700E+04    2.5448383E+06    1.7161863E+04    2.6571114E+06
   -0.30   800.000   -6.285E+01    2.6418650E+06   -1.8073872E+04   -6.7443285E+04    2.5285364E+06    1.8073830E+04    2.6418651E+06
   -0.29   800.000   -6.350E+01    2.6267616E+06   -1.8920722E+04   -7.0531455E+04    2.5125540E+06    1.8920681E+04    2.6267617E+06
   -0.28   800.000   -6.416E+01    2.6117359E+06   -1.9697260E+04   -7.3660811E+04    2.4968634E+06    1.9697219E+04    2.6117360E+06
   -0.27   800.000   -6.483E+01    2.5967553E+06   -2.0403065E+04   -7.6796268E+04    2.4814864E+06    2.0403024E+04    2.5967554E+06
   -0.26   800.000   -6.550E+01    2.5818235E+06   -2.1042054E+04   -7.9899318E+04    2.4664920E+06    2.1042015E+04    2.5818236E+06
   -0.25   800.000   -6.618E+01    2.5669812E+06   -2.1621683E+04   -8.2929972E+04    2.4519898E+06    2.1621646E+04    2.5669813E+06
   -0.24   800.000   -6.687E+01    2.5523054E+06   -2.2151870E+04   -8.5849211E+04    2.4381217E+06    2.2151834E+04    2.5523055E+06
   -0.23   800.000   -6.756E+01    2.5379051E+06   -2.2643734E+04   -8.8621679E+04    2.4250497E+06    2.2643700E+04    2.5379052E+06
   -0.22   800.000   -6.827E+01    2.5239157E+06   -2.3108293E+04   -9.1218269E+04    2.4129432E+06    2.3108261E+04    2.5239158E+06
   -0.21   800.000   -6.898E+01    2.5104916E+06   -2.3555220E+04   -9.3618238E+04    2.4019657E+06    2.3555191E+04    2.5104917E+06
   -0.20   800.000   -6.969E+01    2.4977970E+06   -2.3991811E+04   -9.5810512E+04    2.3922609E+06    2.3991784E+04    2.4977971E+06
   -0.19   800.000   -7.041E+01    2.4859967E+06   -2.4422241E+04   -9.7793974E+04    2.3839419E+06    2.4422217E+04    2.4859968E+06
   -0.18   800.000   -7.114E+01    2.4752466E+06   -2.4847196E+04   -9.9576643E+04    2.3770815E+06    2.4847174E+04    2.4752467E+06
   -0.17   800.000   -7.188E+01    2.4656852E+06   -2.5263882E+04   -1.0117385E+05    2.3717066E+06    2.5263862E+04    2.4656853E+06
   -0.16   800.000   -7.262E+01    2.4574255E+06   -2.5666402E+04   -1.0260564E+05    2.3677960E+06    2.5666385E+04    2.4574256E+06
   -0.15   800.000   -7.337E+01    2.4505493E+06   -2.6046430E+04   -1.0389366E+05    2.3652825E+06    2.6046415E+04    2.4505494E+06
   -0.14   800.000   -7.412E+01    2.4451026E+06   -2.6394081E+04   -1.0505805E+05    2.3640582E+06    2.6394068E+04    2.4451027E+06
   -0.13   800.000   -7.488E+01    2.4410928E+06   -2.6698881E+04   -1.0611459E+05    2.3639832E+06    2.6698870E+04    2.4410929E+06
   -0.12   800.000   -7.565E+01    2.4384890E+06   -2.6950726E+04   -1.0707242E+05    2.3648967E+06    2.6950716E+04    2.4384891E+06
   -0.11   800.000   -7.643E+01    2.4372231E+06   -2.7140746E+04   -1.0793271E+05    2.3666286E+06    2.7140738E+04    2.4372232E+06
   -0.10   800.000   -7.721E+01    2.4371946E+06   -2.7262002E+04   -1.0868819E+05    2.3690120E+06    2.7261995E+04    2.4371946E+06
   -0.09   800.000   -7.799E+01    2.4382762E+06   -2.7309978E+04   -1.0932372E+05    2.3718942E+06    2.7309971E+04    2.4382763E+06
   -0.08   800.000   -7.878E+01    2.4403228E+06   -2.7282831E+04   -1.0981771E+05    2.3751458E+06    2.7282826E+04    2.4403229E+06
   -0.07   800.000   -7.958E+01    2.4431795E+06   -2.7181420E+04   -1.1014410E+05    2.3786671E+06    2.7181416E+04    2.4431796E+06
   -0.06   800.000   -8.038E+01    2.4466912E+06   -2.7009089E+04   -1.1027482E+05    2.3823909E+06    2.7009085E+04    2.4466913E+06
   -0.05   800.000   -8.119E+01    2.4507095E+06   -2.6771262E+04   -1.1018235E+05    2.3862806E+06    2.6771259E+04    2.4507096E+06
   -0.04   800.000   -8.201E+01    2.4550984E+06   -2.6474877E+04   -1.0984217E+05    2.3903263E+06    2.6474874E+04    2.4550985E+06
   -0.03   800.000   -8.283E+01    2.4597358E+06   -2.6127719E+04   -1.0923499E+05    2.3945354E+06    2.6127717E+04    2.4597359E+06
   -0.02   800.000   -8.366E+01    2.4645128E+06   -2.5737736E+04   -1.0834861E+05    2.3989225E+06    2.5737734E+04    2.4645129E+06
   -0.01   800.000   -8.449E+01    2.4693285E+06   -2.5312392E+04   -1.0717924E+05    2.4034971E+06    2.5312391E+04    2.4693286E+06
    0.00   800.000   -8.533E+01    2.4740839E+06   -2.4858150E+04   -1.0573237E+05    2.4082512E+06    2.4858149E+04    2.4740840E+06
    0.01   800.000   -8.617E+01    2.4786733E+06   -2.4380119E+04   -1.0402296E+05    2.4131481E+06    2.4380119E+04    2.4786733E+06
    0.02   800.000   -8.702E+01    2.4829765E+06   -2.3881910E+04   -1.0207486E+05    2.4181132E+06    2.3881911E+04    2.4829765E+06
    0.03   800.000   -8.788E+01    2.4868516E+06   -2.3365675E+04   -9.9919649E+04    2.4230277E+06    2.3365677E+04    2.4868516E+06
    0.04   800.000   -8.874E+01    2.4901299E+06   -2.2832322E+04   -9.7594595E+04    2.4277251E+06    2.2832326E+04    2.4901300E+06
    0.05   800.000   -8.960E+01    2.4926137E+06   -2.2281833E+04   -9.5140150E+04    2.4319915E+06    2.2281838E+04    2.4926137E+06
    0.06   800.000   -9.048E+01    2.4940766E+06   -2.1713633E+04   -9.2596980E+04    2.4355699E+06    2.1713640E+04    2.4940767E+06
    0.07   800.000   -9.136E+01    2.4942685E+06   -2.1126955E+04   -9.0002916E+04    2.4381672E+06    2.1126964E+04    2.4942686E+06
    0.08   800.000   -9.224E+01    2.4929226E+06   -2.0521157E+04   -8.7390142E+04    2.4394649E+06    2.0521167E+04    2.4929226E+06
    0.09   800.000   -9.313E+01    2.4897657E+06   -1.9895971E+04   -8.4782964E+04    2.4391324E+06    1.9895984E+04    2.4897657E+06
    0.10   800.000   -9.402E+01    2.4845309E+06   -1.9251697E+04   -8.2196457E+04    2.4368426E+06    1.9251712E+04    2.4845310E+06
    0.11   800.000   -9.491E+01    2.4769711E+06   -1.8589331E+04   -7.9636172E+04    2.4322876E+06    1.8589347E+04    2.4769711E+06
    0.12   800.000   -9.581E+01    2.4668717E+06   -1.7910660E+04   -7.7098931E+04    2.4251953E+06    1.7910679E+04    2.4668718E+06
    0.13   800.000   -9.672E+01    2.4540629E+06   -1.7218318E+04   -7.4574595E+04    2.4153432E+06    1.7218338E+04    2.4540630E+06
    0.14   800.000   -9.762E+01    2.4384279E+06   -1.6515786E+04   -7.2048521E+04    2.4025705E+06    1.6515807E+04    2.4384279E+06
    0.15   800.000   -9.853E+01    2.4199083E+06   -1.5807339E+04   -6.9504369E+04    2.3867852E+06    1.5807362E+04    2.4199083E+06
    0.16   800.000   -9.944E+01    2.3985054E+06   -1.5097913E+04   -6.6926863E+04    2.3679663E+06    1.5097937E+04    2.3985055E+06
    0.17   800.000   -1.003E+02    2.3742780E+06   -1.4392899E+04   -6.4304175E+04    2.3461624E+06    1.4392924E+04    2.3742781E+06
    0.18   800.000   -1.012E+02    2.3473367E+06   -1.3697894E+04   -6.1629711E+04    2.3214837E+06    1.3697919E+04    2.3473367E+06
    0.19   800.000   -1.022E+02    2.3178363E+06   -1.3018430E+04   -5.8903145E+04    2.2940929E+06    1.3018456E+04    2.3178363E+06
    0.20   800.000   -1.031E+02    2.2859681E+06   -1.2359763E+04   -5.6130738E+04    2.2641921E+06    1.2359788E+04    2.2859681E+06
    0.21   800.000   -1.039E+02    2.2519511E+06   -1.1726723E+04   -5.3324998E+04    2.2320106E+06    1.1726748E+04    2.2519511E+06
    0.22   800.000   -1.048E+02    2.2160252E+06   -1.1123686E+04   -5.0503837E+04    2.1977938E+06    1.1123712E+04    2.2160252E+06
    0.23   800.000   -1.057E+02    2.1784450E+06   -1.0554633E+04   -4.7689390E+04    2.1617937E+06    1.0554657E+04    2.1784450E+06
    0.24   800.000   -1.066E+02    2.1394755E+06   -1.0023266E+04   -4.4906647E+04    2.1242634E+06    1.0023290E+04    2.1394755E+06
    0.25   800.000   -1.075E+02    2.0993887E+06   -9.5331545E+03   -4.2182037E+04    2.0854544E+06    9.5331775E+03    2.0993887E+06
    0.26   800.000   -1.083E+02    2.0584611E+06   -9.0878245E+03   -3.9542057E+04    2.0456164E+06    9.0878464E+03    2.0584612E+06
    0.27   800.000   -1.092E+02    2.0169724E+06   -8.6907857E+03   -3.7012018E+04    2.0049997E+06    8.6908063E+03    2.0169724E+06
    0.28   800.000   -1.100E+02    1.9752029E+06   -8.3454497E+03   -3.4614976E+04    1.9638572E+06    8.3454691E+03    1.9752030E+06
    0.29   800.000   -1.108E+02    1.9334328E+06   -8.0549501E+03   -3.2370859E+04    1.9224475E+06    8.0549681E+03    1.9334328E+06
    0.30   800.000   -1.116E+02    1.8919393E+06   -7.8218771E+03   -3.0295855E+04    1.8810351E+06    7.8218938E+03    1.8919394E+06
    0.31   800.000   -1.124E+02    1.8509949E+06   -7.6479599E+03   -2.8402053E+04    1.8398907E+06    7.6479752E+03    1.8509949E+06
    0.32   800.000   -1.132E+02    1.8108644E+06   -7.5337385E+03   -2.6697362E+04    1.7992886E+06    7.5337525E+03    1.8108645E+06
    0.33   800.000   -1.140E+02    1.7718028E+06   -7.4782711E+03   -2.5185684E+04    1.7595029E+06    7.4782837E+03    1.7718028E+06
    0.34   800.000   -1.147E+02    1.7340519E+06   -7.4789247E+03   -2.3867284E+04    1.7208033E+06    7.4789361E+03    1.7340519E+06
    0.35   800.000   -1.154E+02    1.6978383E+06   -7.5312894E+03   -2.2739319E+04    1.6834501E+06    7.5312995E+03    1.6978383E+06
    0.36   800.000   -1.162E+02    1.6633706E+06   -7.6292408E+03   -2.1796449E+04    1.6476898E+06    7.6292498E+03    1.6633707E+06
    0.37   800.000   -1.169E+02    1.6308377E+06   -7.7651605E+03   -2.1031475E+04    1.6137511E+06    7.7651684E+03    1.6308377E+06
    0.38   800.000   -1.176E+02    1.6004065E+06   -7.9302984E+03   -2.0435967E+04    1.5818420E+06    7.9303054E+03    1.6004065E+06
    0.39   800.000   -1.183E+02    1.5722207E+06   -8.1152432E+03   -2.0000851E+04    1.5521478E+06    8.1152492E+03    1.5722208E+06
    0.40   800.000   -1.189E+02    1.5463999E+06   -8.3104475E+03   -1.9716940E+04    1.5248298E+06    8.3104528E+03    1.5463999E+06
    0.41   800.000   -1.196E+02    1.5230382E+06   -8.5067519E+03   -1.9575374E+04    1.5000246E+06    8.5067565E+03    1.5230383E+06
    0.42   800.000   -1.202E+02    1.5022047E+06   -8.6958457E+03   -1.9567947E+04    1.4778437E+06    8.6958498E+03    1.5022048E+06
    0.43   800.000   -1.209E+02    1.4839427E+06   -8.8706193E+03   -1.9687267E+04    1.4583736E+06    8.8706229E+03    1.4839428E+06
    0.44   800.000   -1.215E+02    1.4682703E+06   -9.0253743E+03   -1.9926717E+04    1.4416760E+06    9.0253776E+03    1.4682703E+06
    0.45   800.000   -1.221E+02    1.4551808E+06   -9.1558818E+03   -2.0280204E+04    1.4277873E+06    9.1558850E+03    1.4551809E+06
    0.46   800.000   -1.227E+02    1.4446439E+06   -9.2592982E+03   -2.0741724E+04    1.4167183E+06    9.2593012E+03    1.4446440E+06
    0.47   800.000   -1.233E+02    1.4366062E+06   -9.3339671E+03   -2.1304832E+04    1.4084537E+06    9.3339701E+03    1.4366062E+06
    0.48   800.000   -1.239E+02    1.4309917E+06   -9.3791508E+03   -2.1962138E+04    1.4029508E+06    9.3791538E+03    1.4309917E+06
    0.49   800.000   -1.245E+02    1.4277029E+06   -9.3947360E+03   -2.2704987E+04    1.4001381E+06    9.3947391E+03    1.4277030E+06
    0.50   800.000   -1.251E+02    1.4266210E+06   -9.3809610E+03   -2.3523451E+04    1.3999133E+06    9.3809642E+03    1.4266211E+06
    0.51   800.000   -1.257E+02    1.4276056E+06   -9.3382006E+03   -2.4406743E+04    1.4021423E+06    9.3382039E+03    1.4276057E+06
    0.52   800.000   -1.262E+02    1.4304950E+06   -9.2668304E+03   -2.5344046E+04    1.4066570E+06    9.2668338E+03    1.4304951E+06
    0.53   800.000   -1.268E+02    1.4351064E+06   -9.1671773E+03   -2.6325709E+04    1.4132558E+06    9.1671808E+03    1.4351064E+06
    0.54   800.000   -1.274E+02    1.4412367E+06   -9.0395443E+03   -2.7344637E+04    1.4217037E+06    9.0395478E+03    1.4412367E+06
    0.55   800.000   -1.280E+02    1.4486640E+06   -8.8842848E+03   -2.8397672E+04    1.4317360E+06    8.8842883E+03    1.4486641E+06
    0.56   800.000   -1.285E+02    1.4571510E+06   -8.7018941E+03   -2.9486726E+04    1.4430620E+06    8.7018975E+03    1.4571511E+06
    0.57   800.000   -1.291E+02    1.4664488E+06   -8.4930878E+03   -3.0619421E+04    1.4553723E+06    8.4930911E+03    1.4664488E+06
    0.58   800.000   -1.297E+02    1.4763029E+06   -8.2588450E+03   -3.1809075E+04    1.4683465E+06    8.2588481E+03    1.4763030E+06
    0.59   800.000   -1.303E+02    1.4864604E+06   -8.0004132E+03   -3.3073921E+04    1.4816636E+06    8.0004160E+03    1.4864604E+06
    0.60   800.000   -1.308E+02    1.4966776E+06   -7.7192872E+03   -3.4435562E+04    1.4950124E+06    7.7192896E+03    1.4966776E+06
    0.61   800.000   -1.314E+02    1.5067290E+06   -7.4171890E+03   -3.5916774E+04    1.5081030E+06    7.4171909E+03    1.5067291E+06
    0.62   800.000   -1.320E+02    1.5164155E+06   -7.0960776E+03   -3.7538880E+04    1.5206775E+06    7.0960791E+03    1.5164156E+06
    0.63   800.000   -1.326E+02    1.5255719E+06   -6.7582119E+03   -3.9318986E+04    1.5325203E+06    6.7582127E+03    1.5255719E+06
    0.64   800.000   -1.332E+02    1.5340725E+06   -6.4062692E+03   -4.1267435E+04    1.5434662E+06    6.4062693E+03    1.5340725E+06
    0.65   800.000   -1.338E+02    1.5418352E+06   -6.0435058E+03   -4.3385811E+04    1.5534059E+06    6.0435050E+03    1.5418352E+06
    0.66   800.000   -1.344E+02    1.5488220E+06   -5.6739216E+03   -4.5665782E+04    1.5622883E+06    5.6739199E+03    1.5488220E+06
    0.67   800.000   -1.351E+02    1.5550365E+06   -5.3023848E+03   -4.8088950E+04    1.5701190E+06    5.3023823E+03    1.5550365E+06
    0.68   800.000   -1.357E+02    1.5605187E+06   -4.9346694E+03   -5.0627738E+04    1.5769538E+06    4.9346658E+03    1.5605187E+06
    0.69   800.000   -1.363E+02    1.5653361E+06   -4.5773708E+03   -5.3247210E+04    1.5828895E+06    4.5773663E+03    1.5653361E+06
    0.70   800.000   -1.370E+02    1.5695735E+06   -4.2376858E+03   -5.5907575E+04    1.5880499E+06    4.2376804E+03    1.5695736E+06
    0.71   800.000   -1.376E+02    1.5733208E+06   -3.9230624E+03   -5.8567067E+04    1.5925704E+06    3.9230561E+03    1.5733208E+06
    0.72   800.000   -1.383E+02    1.5766597E+06   -3.6407485E+03   -6.1184844E+04    1.5965813E+06    3.6407414E+03    1.5766598E+06
    0.73   800.000   -1.390E+02    1.5796527E+06   -3.3972862E+03   -6.3723584E+04    1.6001912E+06    3.3972783E+03    1.5796528E+06
    0.74   800.000   -1.397E+02    1.5823324E+06   -3.1980063E+03   -6.6151530E+04    1.6034737E+06    3.1979979E+03    1.5823325E+06
    0.75   800.000   -1.404E+02    1.5846943E+06   -3.0465872E+03   -6.8443816E+04    1.6064565E+06    3.0465783E+03    1.5846944E+06
    0.76   800.000   -1.411E+02    1.5866933E+06   -2.9447348E+03   -7.0583031E+04    1.6091159E+06    2.9447255E+03    1.5866933E+06
    0.77   800.000   -1.419E+02    1.5882440E+06   -2.8920387E+03   -7.2559052E+04    1.6113766E+06    2.8920292E+03    1.5882440E+06
    0.78   800.000   -1.427E+02    1.5892254E+06   -2.8860388E+03   -7.4368283E+04    1.6131163E+06    2.8860292E+03    1.5892255E+06
    0.79   800.000   -1.435E+02    1.5894894E+06   -2.9225160E+03   -7.6012449E+04    1.6141760E+06    2.9225065E+03    1.5894894E+06
    0.80   800.000   -1.443E+02    1.5888715E+06   -2.9959875E+03   -7.7497135E+04    1.6143730E+06    2.9959782E+03    1.5888715E+06
    0.81   800.000   -1.451E+02    1.5872047E+06   -3.1003518E+03   -7.8830230E+04    1.6135170E+06    3.1003428E+03    1.5872048E+06
    0.82   800.000   -1.459E+02    1.5843327E+06   -3.2296010E+03   -8.0020409E+04    1.6114266E+06    3.2295924E+03    1.5843327E+06
    0.83   800.000   -1.468E+02    1.5801229E+06   -3.3784922E+03   -8.1075744E+04    1.6079446E+06    3.3784841E+03    1.5801229E+06
    0.84   800.000   -1.477E+02    1.5744774E+06   -3.5430752E+03   -8.2002526E+04    1.6029513E+06    3.5430676E+03    1.5744775E+06
    0.85   800.000   -1.486E+02    1.5673413E+06   -3.7209914E+03   -8.2804335E+04    1.5963738E+06    3.7209844E+03    1.5673414E+06
    0.86   800.000   -1.496E+02    1.5587074E+06   -3.9115012E+03   -8.3481424E+04    1.5881913E+06    3.9114950E+03    1.5587074E+06
    0.87   800.000   -1.505E+02    1.5486174E+06   -4.1152489E+03   -8.4030451E+04    1.5784365E+06    4.1152434E+03    1.5486175E+06
    0.88   800.000   -1.515E+02    1.5371605E+06   -4.3338194E+03   -8.4444599E+04    1.5671925E+06    4.3338147E+03    1.5371605E+06
    0.89   800.000   -1.525E+02    1.5244684E+06   -4.5691812E+03   -8.4714104E+04    1.5545875E+06    4.5691774E+03    1.5244685E+06
    0.90   800.000   -1.535E+02    1.5107094E+06   -4.8231173E+03   -8.4827170E+04    1.5407862E+06    4.8231143E+03    1.5107095E+06
    0.91   800.000   -1.546E+02    1.4960805E+06   -5.0967395E+03   -8.4771211E+04    1.5259812E+06    5.0967374E+03    1.4960805E+06
    0.92   800.000   -1.557E+02    1.4807997E+06   -5.3901552E+03   -8.4534300E+04    1.5103839E+06    5.3901539E+03    1.4807997E+06
    0.93   800.000   -1.567E+02    1.4650986E+06   -5.7023170E+03   -8.4106704E+04    1.4942153E+06    5.7023165E+03    1.4650986E+06
    0.94   800.000   -1.578E+02    1.4492149E+06   -6.0310541E+03   -8.3482327E+04    1.4776988E+06    6.0310542E+03    1.4492150E+06
    0.95   800.000   -1.590E+02    1.4333867E+06   -6.3732531E+03   -8.2659905E+04    1.4610540E+06    6.3732538E+03    1.4333868E+06
    0.96   800.000   -1.601E+02    1.4178462E+06   -6.7251382E+03   -8.1643823E+04    1.4444921E+06    6.7251394E+03    1.4178463E+06
    0.97   800.000   -1.612E+02    1.4028154E+06   -7.0825939E+03   -8.0444479E+04    1.4282120E+06    7.0825954E+03    1.4028155E+06
    0.98   800.000   -1.624E+02    1.3885021E+06   -7.4414739E+03   -7.9078150E+04    1.4123985E+06    7.4414755E+03    1.3885022E+06
    0.99   800.000   -1.635E+02    1.3750968E+06   -7.7978491E+03   -7.7566420E+04    1.3972208E+06    7.7978507E+03    1.3750968E+06
    1.00   800.000   -1.646E+02    1.3627701E+06   -8.1481620E+03   -7.5935255E+04    1.3828321E+06    8.1481634E+03    1.3627702E+06
    1.01   800.000   -1.658E+02    1.3516722E+06   -8.4892699E+03   -7.4213858E+04    1.3693704E+06    8.4892710E+03    1.3516723E+06
    1.02   800.000   -1.669E+02    1.3419320E+06   -8.8183785E+03   -7.2433451E+04    1.3569594E+06    8.8183791E+03    1.3419321E+06
    1.03   800.000   -1.681E+02    1.3336580E+06   -9.1328819E+03   -7.0626122E+04    1.3457105E+06    9.1328818E+03    1.3336581E+06
    1.04   800.000   -1.692E+02    1.3269395E+06   -9.4301418E+03   -6.8823841E+04    1.3357245E+06    9.4301410E+03    1.3269395E+06
    1.05   800.000   -1.703E+02    1.3218477E+06   -9.7072482E+03   -6.7057685E+04    1.3270935E+06    9.7072466E+03    1.3218478E+06
    1.06   800.000   -1.714E+02    1.3184378E+06   -9.9608090E+03   -6.5357280E+04    1.3199026E+06    9.9608066E+03    1.3184379E+06
    1.07   800.000   -1.725E+02    1.3167492E+06   -1.0186818E+04   -6.3750398E+04    1.3142299E+06    1.0186815E+04    1.3167492E+06
    1.08   800.000   -1.735E+02    1.3168059E+06   -1.0380639E+04   -6.2262623E+04    1.3101455E+06    1.0380635E+04    1.3168059E+06
    1.09   800.000   -1.746E+02    1.3186164E+06   -1.0537131E+04   -6.0916999E+04    1.3077104E+06    1.0537126E+04    1.3186164E+06
    1.10   800.000   -1.756E+02    1.3221723E+06   -1.0650916E+04   -5.9733589E+04    1.3069726E+06    1.0650910E+04    1.3221723E+06
    1.11   800.000   -1.766E+02    1.3274473E+06   -1.0716761E+04   -5.8728912E+04    1.3079642E+06    1.0716754E+04    1.3274473E+06
    1.12   800.000   -1.776E+02    1.3343963E+06   -1.0730035E+04   -5.7915267E+04    1.3106977E+06    1.0730028E+04    1.3343963E+06
    1.13   800.000   -1.786E+02    1.3429553E+06   -1.0687166E+04   -5.7299985E+04    1.3151630E+06    1.0687159E+04    1.3429553E+06
    1.14   800.000   -1.795E+02    1.3530424E+06   -1.0586038E+04   -5.6884680E+04    1.3213259E+06    1.0586031E+04    1.3530424E+06
    1.15   800.000   -1.805E+02    1.3645603E+06   -1.0426263E+04   -5.6664546E+04    1.3291282E+06    1.0426255E+04    1.3645604E+06
    1.16   800.000   -1.814E+02    1.3774007E+06   -1.0209294E+04   -5.6627755E+04    1.3384882E+06    1.0209287E+04    1.3774008E+06
    1.17   800.000   -1.823E+02    1.3914493E+06   -9.9383793E+03   -5.6755007E+04    1.3493052E+06    9.9383725E+03    1.3914494E+06
    1.18   800.000   -1.832E+02    1.4065925E+06   -9.6183749E+03   -5.7019261E+04    1.3614631E+06    9.6183687E+03    1.4065925E+06
    1.19   800.000   -1.840E+02    1.4227242E+06   -9.2554748E+03   -5.7385750E+04    1.3748375E+06    9.2554692E+03    1.4227242E+06
    1.20   800.000   -1.849E+02    1.4397532E+06   -8.8569162E+03   -5.7812333E+04    1.3893022E+06    8.8569115E+03    1.4397532E+06
    1.21   800.000   -1.857E+02    1.4576097E+06   -8.4307130E+03   -5.8250331E+04    1.4047382E+06    8.4307094E+03    1.4576097E+06
    1.22   800.000   -1.866E+02    1.4762515E+06   -7.9854473E+03   -5.8645903E+04    1.4210418E+06    7.9854449E+03    1.4762515E+06
    1.23   800.000   -1.874E+02    1.4956694E+06   -7.5301204E+03   -5.8942029E+04    1.4381340E+06    7.5301193E+03    1.4956694E+06
    1.24   800.000   -1.882E+02    1.5158901E+06   -7.0740354E+03   -5.9081045E+04    1.4559689E+06    7.0740358E+03    1.5158900E+06
    1.25   800.000   -1.890E+02    1.5369789E+06   -6.6266661E+03   -5.9007609E+04    1.4745413E+06    6.6266681E+03    1.5369789E+06
    1.26   800.000   -1.899E+02    1.5590394E+06   -6.1974640E+03   -5.8671864E+04    1.4938925E+06    6.1974677E+03    1.5590394E+06
    1.27   800.000   -1.907E+02    1.5822115E+06   -5.7955667E+03   -5.8032536E+04    1.5141139E+06    5.7955723E+03    1.5822115E+06
    1.28   800.000   -1.915E+02    1.6066663E+06   -5.4293964E+03   -5.7059654E+04    1.5353466E+06    5.4294040E+03    1.6066663E+06
    1.29   800.000   -1.922E+02    1.6325995E+06   -5.1061621E+03   -5.5736603E+04    1.5577785E+06    5.1061716E+03    1.6325995E+06
    1.30   800.000   -1.930E+02    1.6602223E+06   -4.8313098E+03   -5.4061304E+04    1.5816364E+06    4.8313214E+03    1.6602223E+06
    1.31   800.000   -1.938E+02    1.6897507E+06   -4.6079827E+03   -5.2046390E+04    1.6071759E+06    4.6079963E+03    1.6897507E+06
    1.32   800.000   -1.946E+02    1.7213941E+06   -4.4365648E+03   -4.9718358E+04    1.6346675E+06    4.4365806E+03    1.7213941E+06
    1.33   800.000   -1.954E+02    1.7553445E+06   -4.3143820E+03   -4.7115826E+04    1.6643821E+06    4.3143999E+03    1.7553445E+06
    1.34   800.000   -1.962E+02    1.7917665E+06   -4.2356225E+03   -4.4287093E+04    1.6965755E+06    4.2356426E+03    1.7917665E+06
    1.35   800.000   -1.970E+02    1.8307895E+06   -4.1915190E+03   -4.1287312E+04    1.7314754E+06    4.1915412E+03    1.8307894E+06
    1.36   800.000   -1.978E+02    1.8725025E+06   -4.1708026E+03   -3.8175572E+04    1.7692691E+06    4.1708270E+03    1.8725025E+06
    1.37   800.000   -1.986E+02    1.9169522E+06   -4.1604046E+03   -3.5012190E+04    1.8100957E+06    4.1604310E+03    1.9169522E+06
    1.38   800.000   -1.994E+02    1.9641434E+06   -4.1463410E+03   -3.1856394E+04    1.8540418E+06    4.1463696E+03    1.9641434E+06
    1.39   800.000   -2.002E+02    2.0140426E+06   -4.1146894E+03   -2.8764506E+04    1.9011410E+06    4.1147199E+03    2.0140426E+06
    1.40   800.000   -2.010E+02    2.0665836E+06   -4.0525415E+03   -2.5788569E+04    1.9513770E+06    4.0525739E+03    2.0665836E+06
    1.41   800.000   -2.018E+02    2.1216746E+06   -3.9488237E+03   -2.2975317E+04    2.0046900E+06    3.9488580E+03    2.1216746E+06
    1.42   800.000   -2.026E+02    2.1792066E+06   -3.7948913E+03   -2.0365328E+04    2.0609863E+06    3.7949272E+03    2.1792066E+06
    1.43   800.000   -2.034E+02    2.2390616E+06   -3.5848414E+03   -1.7992228E+04    2.1201481E+06    3.5848788E+03    2.2390615E+06
    1.44   800.000   -2.042E+02    2.3011207E+06   -3.3155360E+03   -1.5881912E+04    2.1820464E+06    3.3155747E+03    2.3011207E+06
    1.45   800.000   -2.050E+02    2.3652721E+06   -2.9863659E+03   -1.4051837E+04    2.2465513E+06    2.9864057E+03    2.3652720E+06
    1.46   800.000   -2.058E+02    2.4314164E+06   -2.5988262E+03   -1.2510552E+04    2.3135429E+06    2.5988668E+03    2.4314163E+06
    1.47   800.000   -2.066E+02    2.4994710E+06   -2.1559917E+03   -1.1257691E+04    2.3829185E+06    2.1560330E+03    2.4994709E+06
    1.48   800.000   -2.075E+02    2.5693716E+06   -1.6619874E+03   -1.0284617E+04    2.4545965E+06    1.6620289E+03    2.5693716E+06
    1.49   800.000   -2.083E+02    2.6410714E+06   -1.1215398E+03   -9.5758121E+03    2.5285156E+06    1.1215814E+03    2.6410713E+06
    1.50   800.000   -2.091E+02    2.7145369E+06   -5.3967802E+02   -9.1109472E+03    2.6046297E+06    5.3971938E+02    2.7145369E+06
    1.51   800.000   -2.100E+02    2.7897421E+06    7.8378037E+01   -8.8673491E+03    2.6828978E+06   -7.8337192E+01    2.7897421E+06
    1.52   800.000   -2.108E+02    2.8666596E+06    7.2713013E+02   -8.8224470E+03    2.7632710E+06   -7.2709006E+02    2.8666595E+06
    1.53   800.000   -2.116E+02    2.9452506E+06    1.4005422E+03   -8.9556869E+03    2.8456778E+06   -1.4005031E+03    2.9452506E+06
    1.54   800.000   -2.125E+02    3.0254550E+06    2.0916674E+03   -9.2494642E+03    2.9300100E+06   -2.0916295E+03    3.0254550E+06
    1.55   800.000   -2.133E+02    3.1071810E+06    2.7922530E+03   -9.6888128E+03    3.0161120E+06   -2.7922166E+03    3.1071810E+06
    1.56   800.000   -2.141E+02    3.1902969E+06    3.4924372E+03   -1.0259879E+04    3.1037754E+06   -3.4924025E+03    3.1902969E+06
    1.57   800.000   -2.150E+02    3.2746252E+06    4.1806554E+03   -1.0947522E+04    3.1927392E+06   -4.1806226E+03    3.2746251E+06
    1.58   800.000   -2.158E+02    3.3599403E+06    4.8438557E+03   -1.1732647E+04    3.2826987E+06   -4.8438249E+03    3.3599403E+06
    1.59   800.000   -2.167E+02    3.4459706E+06    5.4680747E+03   -1.2589977E+04    3.3733194E+06   -5.4680461E+03    3.4459705E+06
    1.60   800.000   -2.175E+02    3.5324038E+06    6.0393516E+03   -1.3486883E+04    3.4642566E+06   -6.0393254E+03    3.5324038E+06
    1.61   800.000   -2.183E+02    3.6188985E+06    6.5448791E+03   -1.4383672E+04    3.5551768E+06   -6.5448554E+03    3.6188985E+06
    1.62   800.000   -2.192E+02    3.7050977E+06    6.9742156E+03   -1.5235319E+04    3.6457781E+06   -6.9741946E+03    3.7050976E+06
    1.63   800.000   -2.200E+02    3.7906462E+06    7.3203444E+03   -1.5994317E+04    3.7358082E+06   -7.3203261E+03    3.7906462E+06
    1.64   800.000   -2.208E+02    3.8752098E+06    7.5803722E+03   -1.6614031E+04    3.8250759E+06   -7.5803567E+03    3.8752098E+06
    1.65   800.000   -2.216E+02    3.9584936E+06    7.7557147E+03   -1.7051873E+04    3.9134560E+06   -7.7557021E+03    3.9584936E+06
    1.66   800.000   -2.224E+02    4.0402589E+06    7.8517141E+03   -1.7271697E+04    4.0008872E+06   -7.8517043E+03    4.0402589E+06
    1.67   800.000   -2.232E+02    4.1203360E+06    7.8767423E+03   -1.7245066E+04    4.0873621E+06   -7.8767354E+03    4.1203360E+06
    1.68   800.000   -2.241E+02    4.1986317E+06    7.8409474E+03   -1.6951323E+04    4.1729119E+06   -7.8409433E+03    4.1986317E+06
    1.69   800.000   -2.249E+02    4.2751300E+06    7.7548685E+03   -1.6376683E+04    4.2575858E+06   -7.7548671E+03    4.2751300E+06
    1.70   800.000   -2.257E+02    4.3498855E+06    7.6281619E+03   -1.5512749E+04    4.3414279E+06   -7.6281632E+03    4.3498855E+06
    1.71   800.000   -2.265E+02    4.4230101E+06    7.4686488E+03   -1.4354943E+04    4.4244533E+06   -7.4686527E+03    4.4230101E+06
    1.72   800.000   -2.272E+02    4.4946536E+06    7.2818205E+03   -1.2901289E+04    4.5066258E+06   -7.2818268E+03    4.4946536E+06
    1.73   800.000   -2.280E+02    4.5649815E+06    7.0708354E+03   -1.1151933E+04    4.5878410E+06   -7.0708440E+03    4.5649815E+06
    1.74   800.000   -2.288E+02    4.6341506E+06    6.8369478E+03   -9.1095524E+03    4.6679154E+06   -6.8369584E+03    4.6341506E+06
    1.75   800.000   -2.296E+02    4.7022871E+06    6.5802267E+03   -6.7806825E+03    4.7465868E+06   -6.5802391E+03    4.7022871E+06
    1.76   800.000   -2.304E+02    4.7694691E+06    6.3003872E+03   -4.1777254E+03    4.8235237E+06   -6.3004012E+03    4.7694691E+06
    1.77   800.000   -2.312E+02    4.8357146E+06    5.9975533E+03   -1.3212567E+03    4.8983473E+06   -5.9975686E+03    4.8357146E+06
    1.78   800.000   -2.319E+02    4.9009768E+06    5.6728051E+03    1.7579248E+03    4.9706615E+06   -5.6728215E+03    4.9009768E+06
    1.79   800.000   -2.327E+02    4.9651471E+06    5.3284208E+03    5.0176101E+03    5.0400901E+06   -5.3284380E+03    4.9651471E+06
    1.80   800.000   -2.335E+02    5.0280638E+06    4.9677870E+03    8.4044082E+03    5.1063153E+06   -4.9678047E+03    5.0280638E+06
    1.81   800.000   -2.342E+02    5.0895267E+06    4.5950130E+03    1.1855746E+04    5.1691141E+06   -4.5950310E+03    5.0895268E+06
    1.82   800.000   -2.350E+02    5.1493161E+06    4.2143379E+03    1.5303684E+04    5.2283879E+06   -4.2143559E+03    5.1493162E+06
    1.83   800.000   -2.357E+02    5.2072137E+06    3.8294533E+03    1.8680198E+04    5.2841814E+06   -3.8294710E+03    5.2072137E+06
    1.84   800.000   -2.365E+02    5.2630255E+06    3.4428857E+03    2.1923233E+04    5.3366909E+06   -3.4429030E+03    5.2630255E+06
    1.85   800.000   -2.372E+02    5.3166045E+06    3.0555780E+03    2.4982551E+04    5.3862588E+06   -3.0555946E+03    5.3166045E+06
    1.86   800.000   -2.380E+02    5.3678708E+06    2.6667821E+03    2.7824356E+04    5.4333578E+06   -2.6667978E+03    5.3678709E+06
    1.87   800.000   -2.387E+02    5.4168284E+06    2.2743268E+03    3.0433842E+04    5.4785643E+06   -2.2743414E+03    5.4168285E+06
    1.88   800.000   -2.395E+02    5.4635751E+06    1.8752560E+03    3.2815189E+04    5.5225243E+06   -1.8752693E+03    5.4635752E+06
    1.89   800.000   -2.402E+02    5.5083047E+06    1.4667538E+03    3.4989016E+04    5.5659139E+06   -1.4667656E+03    5.5083048E+06
    1.90   800.000   -2.409E+02    5.5512998E+06    1.0472068E+03    3.6987794E+04    5.6093961E+06   -1.0472170E+03    5.5512998E+06
    1.91   800.000   -2.417E+02    5.5929143E+06    6.1720238E+02    3.8850104E+04    5.6535780E+06   -6.1721085E+02    5.5929143E+06
    1.92   800.000   -2.424E+02    5.6335471E+06    1.8025117E+02    4.0614753E+04    5.6989701E+06   -1.8025778E+02    5.6335472E+06
    1.93   800.000   -2.431E+02    5.6736087E+06   -2.5694680E+02    4.2315678E+04    5.7459513E+06    2.5694214E+02    5.6736088E+06
    1.94   800.000   -2.438E+02    5.7134824E+06   -6.8479937E+02    4.3978258E+04    5.7947428E+06    6.8479671E+02    5.7134825E+06
    1.95   800.000   -2.445E+02    5.7534859E+06   -1.0916842E+03    4.5617257E+04    5.8453918E+06    1.0916836E+03    5.7534860E+06
    1.96   800.000   -2.452E+02    5.7938349E+06   -1.4652573E+03    4.7236162E+04    5.8977681E+06    1.4652586E+03    5.7938349E+06
    1.97   800.000   -2.459E+02    5.8346137E+06   -1.7939832E+03    4.8827431E+04    5.9515713E+06    1.7939864E+03    5.8346137E+06
    1.98   800.000   -2.466E+02    5.8757550E+06   -2.0685971E+03    5.0373006E+04    6.0063476E+06    2.0686020E+03    5.8757551E+06
    1.99   800.000   -2.473E+02    5.9170314E+06   -2.2832033E+03    5.1844571E+04    6.0615143E+06    2.2832098E+03    5.9170315E+06
    2.00   800.000   -2.480E+02    5.9580587E+06   -2.4357864E+03    5.3203297E+04    6.1163880E+06    2.4357943E+03    5.9580588E+06
    2.01   800.000   -2.486E+02    5.9983120E+06   -2.5280392E+03    5.4399170E+04    6.1702130E+06    2.5280482E+03    5.9983120E+06
    2.02   800.000   -2.493E+02    6.0371521E+06   -2.5645752E+03    5.5370336E+04    6.2221892E+06    2.5645853E+03    6.0371522E+06
    2.03   800.000   -2.500E+02    6.0738611E+06   -2.5517385E+03    5.6043116E+04    6.2714966E+06    2.5517494E+03    6.0738612E+06
    2.04   800.000   -2.506E+02    6.1076828E+06   -2.4963154E+03    5.6333386E+04    6.3173165E+06    2.4963270E+03    6.1076829E+06
    2.05   800.000   -2.513E+02    6.1378663E+06   -2.4044589E+03    5.6149842E+04    6.3588503E+06    2.4044711E+03    6.1378664E+06
    2.06   800.000   -2.519E+02    6.1637080E+06   -2.2810591E+03    5.5399349E+04    6.3953357E+06    2.2810718E+03    6.1637080E+06
    2.07   800.000   -2.526E+02    6.1845893E+06   -2.1296565E+03    5.3994128E+04    6.4260622E+06    2.1296697E+03    6.1845893E+06
    2.08   800.000   -2.532E+02    6.2000073E+06   -1.9528492E+03    5.1860121E+04    6.4503860E+06    1.9528629E+03    6.2000073E+06
    2.09   800.000   -2.539E+02    6.2095965E+06   -1.7530176E+03    4.8945541E+04    6.4677452E+06    1.7530318E+03    6.2095966E+06
    2.10   800.000   -2.545E+02    6.2131408E+06   -1.5331319E+03    4.5228458E+04    6.4776740E+06    1.5331468E+03    6.2131408E+06
    2.11   800.000   -2.551E+02    6.2105751E+06   -1.2974087E+03    4.0722303E+04    6.4798171E+06    1.2974242E+03    6.2105752E+06
    2.12   800.000   -2.557E+02    6.2019798E+06   -1.0516406E+03    3.5478472E+04    6.4739423E+06    1.0516570E+03    6.2019798E+06
    2.13   800.000   -2.563E+02    6.1875671E+06   -8.0311700E+02    2.9585566E+04    6.4599511E+06    8.0313423E+02    6.1875671E+06
    2.14   800.000   -2.570E+02    6.1676646E+06   -5.6014643E+02    2.3165362E+04    6.4378881E+06    5.6016461E+02    6.1676646E+06
    2.15   800.000   -2.576E+02    6.1426961E+06   -3.3127554E+02    1.6366040E+04    6.4079458E+06    3.3129476E+02    6.1426961E+06
    2.16   800.000   -2.582E+02    6.1131638E+06   -1.2434998E+02    9.3535901E+03    6.3704677E+06    1.2437029E+02    6.1131638E+06
    2.17   800.000   -2.587E+02    6.0796319E+06    5.4418040E+01    2.3024820E+03    6.3259469E+06   -5.4396573E+01    6.0796319E+06
    2.18   800.000   -2.593E+02    6.0427136E+06    2.0122394E+02   -4.6132938E+03    6.2750217E+06   -2.0120128E+02    6.0427137E+06
    2.19   800.000   -2.599E+02    6.0030606E+06    3.1517546E+02   -1.1227958E+04    6.2184667E+06   -3.1515156E+02    6.0030606E+06
    2.20   800.000   -2.605E+02    5.9613542E+06    3.9847276E+02   -1.7389877E+04    6.1571800E+06   -3.9844759E+02    5.9613542E+06
    2.21   800.000   -2.611E+02    5.9182977E+06    4.5627054E+02   -2.2965514E+04    6.0921665E+06   -4.5624408E+02    5.9182977E+06
    2.22   800.000   -2.616E+02    5.8746071E+06    4.9628083E+02   -2.7841516E+04    6.0245160E+06   -4.9625308E+02    5.8746071E+06
    2.23   800.000   -2.622E+02    5.8309991E+06    5.2820649E+02   -3.1925309E+04    5.9553773E+06   -5.2817746E+02    5.8309991E+06
    2.24   800.000   -2.627E+02    5.7881763E+06    5.6309986E+02   -3.5144644E+04    5.8859261E+06   -5.6306956E+02    5.7881763E+06
    2.25   800.000   -2.633E+02    5.7468075E+06    6.1272063E+02   -3.7446613E+04    5.8173291E+06   -6.1268912E+02    5.7468075E+06
    2.26   800.000   -2.638E+02    5.7075045E+06    6.8893144E+02   -3.8796568E+04    5.7507028E+06   -6.8889880E+02    5.7075045E+06
    2.27   800.000   -2.643E+02    5.6707969E+06    8.0313451E+02   -3.9177307E+04    5.6870700E+06   -8.0310084E+02    5.6707969E+06
    2.28   800.000   -2.649E+02    5.6371064E+06    9.6573088E+02   -3.8588803E+04    5.6273156E+06   -9.6569630E+02    5.6371064E+06
    2.29   800.000   -2.654E+02    5.6067234E+06    1.1855839E+03   -3.7048605E+04    5.5721459E+06   -1.1855486E+03    5.6067234E+06
    2.30   800.000   -2.659E+02    5.5797876E+06    1.4694884E+03   -3.4592873E+04    5.5220533E+06   -1.4694524E+03    5.5797876E+06
    2.31   800.000   -2.664E+02    5.5562763E+06    1.8216756E+03   -3.1277812E+04    5.4772913E+06   -1.8216393E+03    5.5562763E+06
    2.32   800.000   -2.669E+02    5.5360009E+06    2.2434115E+03   -2.7181077E+04    5.4378625E+06   -2.2433749E+03    5.5360009E+06
    2.33   800.000   -2.674E+02    5.5186125E+06    2.7327526E+03   -2.2402535E+04    5.4035210E+06   -2.7327159E+03    5.5186125E+06
    2.34   800.000   -2.679E+02    5.5036180E+06    3.2845173E+03   -1.7063741E+04    5.3737899E+06   -3.2844808E+03    5.5036180E+06
    2.35   800.000   -2.684E+02    5.4904062E+06    3.8905032E+03   -1.1305528E+04    5.3479948E+06   -3.8904671E+03    5.4904062E+06
    2.36   800.000   -2.689E+02    5.4782820E+06    4.5399512E+03   -5.2833953E+03    5.3253104E+06   -4.5399156E+03    5.4782820E+06
    2.37   800.000   -2.694E+02    5.4665097E+06    5.2202335E+03    8.3931313E+02    5.3048193E+06   -5.2201985E+03    5.4665097E+06
    2.38   800.000   -2.699E+02    5.4543607E+06    5.9177251E+03    6.8999956E+03    5.2855775E+06   -5.9176911E+03    5.4543607E+06
    2.39   800.000   -2.704E+02    5.4411649E+06    6.6188122E+03    1.2746339E+04    5.2666842E+06   -6.6187792E+03    5.4411649E+06
    2.40   800.000   -2.709E+02    5.4263606E+06    7.3109791E+03    1.8245727E+04    5.2473497E+06   -7.3109472E+03    5.4263607E+06
    2.41   800.000   -2.714E+02    5.4095402E+06    7.9839043E+03    2.3293286E+04    5.2269557E+06   -7.9838736E+03    5.4095402E+06
    2.42   800.000   -2.719E+02    5.3904853E+06    8.6304741E+03    2.7817442E+04    5.2051034E+06   -8.6304449E+03    5.3904854E+06
    2.43   800.000   -2.723E+02    5.3691901E+06    9.2476005E+03    3.1782095E+04    5.1816451E+06   -9.2475727E+03    5.3691902E+06
    2.44   800.000   -2.728E+02    5.3458679E+06    9.8367202E+03    3.5184988E+04    5.1566962E+06   -9.8366940E+03    5.3458679E+06
    2.45   800.000   -2.733E+02    5.3209411E+06    1.0403863E+04    3.8052399E+04    5.1306272E+06   -1.0403838E+04    5.3209412E+06
    2.46   800.000   -2.738E+02    5.2950153E+06    1.0959210E+04    4.0430864E+04    5.1040369E+06   -1.0959187E+04    5.2950154E+06
    2.47   800.000   -2.742E+02    5.2688388E+06    1.1516121E+04    4.2377216E+04    5.0777098E+06   -1.1516100E+04    5.2688388E+06
    2.48   800.000   -2.747E+02    5.2432525E+06    1.2089686E+04    4.3948531E+04    5.0525615E+06   -1.2089666E+04    5.2432525E+06
    2.49   800.000   -2.752E+02    5.2191353E+06    1.2694924E+04    4.5193670E+04    5.0295794E+06   -1.2694906E+04    5.2191353E+06
    2.50   800.000   -2.757E+02    5.1973489E+06    1.3344821E+04    4.6147824E+04    5.0097611E+06   -1.3344804E+04    5.1973490E+06
    2.51   800.000   -2.761E+02    5.1786890E+06    1.4048437E+04    4.6830916E+04    4.9940584E+06   -1.4048421E+04    5.1786890E+06
    2.52   800.000   -2.766E+02    5.1638453E+06    1.4809333E+04    4.7249919E+04    4.9833302E+06   -1.4809318E+04    5.1638453E+06
    2.53   800.000   -2.771E+02    5.1533756E+06    1.5624527E+04    4.7404369E+04    4.9783071E+06   -1.5624513E+04    5.1533756E+06
    2.54   800.000   -2.775E+02    5.1476935E+06    1.6484174E+04    4.7293640E+04    4.9795710E+06   -1.6484161E+04    5.1476936E+06
    2.55   800.000   -2.780E+02    5.1470698E+06    1.7372047E+04    4.6924254E+04    4.9875470E+06   -1.7372035E+04    5.1470699E+06
    2.56   800.000   -2.784E+02    5.1516445E+06    1.8266834E+04    4.6315434E+04    5.0025076E+06   -1.8266823E+04    5.1516445E+06
    2.57   800.000   -2.789E+02    5.1614452E+06    1.9144135E+04    4.5501617E+04    5.0245836E+06   -1.9144124E+04    5.1614453E+06
    2.58   800.000   -2.794E+02    5.1764080E+06    1.9978953E+04    4.4531256E+04    5.0537774E+06   -1.9978942E+04    5.1764080E+06
    2.59   800.000   -2.798E+02    5.1963930E+06    2.0748386E+04    4.3462139E+04    5.0899736E+06   -2.0748376E+04    5.1963930E+06
    2.60   800.000   -2.803E+02    5.2211941E+06    2.1434175E+04    4.2354151E+04    5.1329422E+06   -2.1434166E+04    5.2211941E+06
    2.61   800.000   -2.807E+02    5.2505385E+06    2.2024765E+04    4.1260946E+04    5.1823320E+06   -2.2024757E+04    5.2505385E+06
    2.62   800.000   -2.812E+02    5.2840771E+06    2.2516584E+04    4.0222144E+04    5.2376547E+06   -2.2516577E+04    5.2840771E+06
    2.63   800.000   -2.816E+02    5.3213673E+06    2.2914368E+04    3.9257479E+04    5.2982615E+06   -2.2914361E+04    5.3213674E+06
    2.64   800.000   -2.821E+02    5.3618532E+06    2.3230461E+04    3.8363834E+04    5.3633168E+06   -2.3230454E+04    5.3618532E+06
    2.65   800.000   -2.826E+02    5.4048449E+06    2.3483212E+04    3.7515508E+04    5.4317735E+06   -2.3483206E+04    5.4048449E+06
    2.66   800.000   -2.830E+02    5.4495043E+06    2.3694681E+04    3.6667420E+04    5.5023573E+06   -2.3694677E+04    5.4495043E+06
    2.67   800.000   -2.835E+02    5.4948377E+06    2.3887971E+04    3.5760532E+04    5.5735620E+06   -2.3887967E+04    5.4948377E+06
    2.68   800.000   -2.839E+02    5.5396988E+06    2.4084511E+04    3.4728492E+04    5.6436621E+06   -2.4084508E+04    5.5396988E+06
    2.69   800.000   -2.844E+02    5.5828027E+06    2.4301619E+04    3.3504517E+04    5.7107422E+06   -2.4301617E+04    5.5828027E+06
    2.70   800.000   -2.849E+02    5.6227504E+06    2.4550561E+04    3.2027660E+04    5.7727460E+06   -2.4550559E+04    5.6227504E+06
    2.71   800.000   -2.853E+02    5.6580646E+06    2.4835277E+04    3.0247896E+04    5.8275416E+06   -2.4835276E+04    5.6580646E+06
    2.72   800.000   -2.858E+02    5.6872342E+06    2.5151829E+04    2.8129739E+04    5.8730024E+06   -2.5151829E+04    5.6872342E+06
    2.73   800.000   -2.863E+02    5.7087688E+06    2.5488564E+04    2.5654338E+04    5.9070991E+06   -2.5488565E+04    5.7087688E+06
    2.74   800.000   -2.868E+02    5.7212596E+06    2.5826933E+04    2.2820185E+04    5.9279982E+06   -2.5826935E+04    5.7212596E+06
    2.75   800.000   -2.872E+02    5.7234462E+06    2.6142873E+04    1.9642628E+04    5.9341593E+06   -2.6142875E+04    5.7234463E+06
    2.76   800.000   -2.877E+02    5.7142840E+06    2.6408620E+04    1.6152418E+04    5.9244253E+06   -2.6408623E+04    5.7142840E+06
    2.77   800.000   -2.882E+02    5.6930080E+06    2.6594817E+04    1.2393486E+04    5.8980961E+06   -2.6594821E+04    5.6930080E+06
    2.78   800.000   -2.887E+02    5.6591882E+06    2.6672751E+04    8.4201329E+03    5.8549797E+06   -2.6672756E+04    5.6591883E+06
    2.79   800.000   -2.891E+02    5.6127699E+06    2.6616541E+04    4.2938415E+03    5.7954143E+06   -2.6616547E+04    5.6127699E+06
    2.80   800.000   -2.896E+02    5.5540937E+06    2.6405109E+04    7.9903812E+01    5.7202591E+06   -2.6405115E+04    5.5540937E+06
    2.81   800.000   -2.901E+02    5.4838937E+06    2.6023765E+04   -4.1558572E+03    5.6308526E+06   -2.6023772E+04    5.4838937E+06
    2.82   800.000   -2.906E+02    5.4032717E+06    2.5465288E+04   -8.3500038E+03    5.5289452E+06   -2.5465295E+04    5.4032717E+06
    2.83   800.000   -2.911E+02    5.3136498E+06    2.4730416E+04   -1.2443776E+04    5.4166087E+06   -2.4730423E+04    5.3136498E+06
    2.84   800.000   -2.916E+02    5.2167058E+06    2.3827744E+04   -1.6384568E+04    5.2961353E+06   -2.3827751E+04    5.2167058E+06
    2.85   800.000   -2.920E+02    5.1142973E+06    2.2773051E+04   -2.0126524E+04    5.1699332E+06   -2.2773059E+04    5.1142973E+06
    2.86   800.000   -2.925E+02    5.0083816E+06    2.1588163E+04   -2.3630293E+04    5.0404278E+06   -2.1588171E+04    5.0083816E+06
    2.87   800.000   -2.930E+02    4.9009386E+06    2.0299458E+04   -2.6862125E+04    4.9099768E+06   -2.0299466E+04    4.9009386E+06
    2.88   800.000   -2.935E+02    4.7939013E+06    1.8936142E+04   -2.9792541E+04    4.7808015E+06   -1.8936150E+04    4.7939013E+06
    2.89   800.000   -2.940E+02    4.6890992E+06    1.7528422E+04   -3.2394831E+04    4.6549380E+06   -1.7528431E+04    4.6890992E+06
    2.90   800.000   -2.945E+02    4.5882152E+06    1.6105699E+04   -3.4643622E+04    4.5342044E+06   -1.6105708E+04    4.5882152E+06
    2.91   800.000   -2.949E+02    4.4927571E+06    1.4694885E+04   -3.6513694E+04    4.4201839E+06   -1.4694894E+04    4.4927571E+06
    2.92   800.000   -2.954E+02    4.4040410E+06    1.3318987E+04   -3.7979228E+04    4.3142183E+06   -1.3318996E+04    4.4040410E+06
    2.93   800.000   -2.959E+02    4.3231846E+06    1.1996054E+04   -3.9013614E+04    4.2174081E+06   -1.1996064E+04    4.3231847E+06
    2.94   800.000   -2.964E+02    4.2511075E+06    1.0738616E+04   -3.9589969E+04    4.1306179E+06   -1.0738626E+04    4.2511075E+06
    2.95   800.000   -2.969E+02    4.1885348E+06    9.5536737E+03   -3.9682455E+04    4.0544834E+06   -9.5536836E+03    4.1885348E+06
    2.96   800.000   -2.974E+02    4.1360042E+06    8.4432510E+03   -3.9268428E+04    3.9894204E+06   -8.4432612E+03    4.1360042E+06
    2.97   800.000   -2.979E+02    4.0938723E+06    7.4054438E+03   -3.8331328E+04    3.9356356E+06   -7.4054543E+03    4.0938723E+06
    2.98   800.000   -2.984E+02    4.0623231E+06    6.4358024E+03   -3.6864001E+04    3.8931400E+06   -6.4358133E+03    4.0623231E+06
    2.99   800.000   -2.988E+02    4.0413758E+06    5.5288500E+03   -3.4872023E+04    3.8617645E+06   -5.5288613E+03    4.0413759E+06
    3.00   800.000   -2.993E+02    4.0308951E+06    4.6795090E+03   -3.2376438E+04    3.8411793E+06   -4.6795206E+03    4.0308952E+06
    3.01   800.000   -2.998E+02    4.0306022E+06    3.8842443E+03   -2.9415304E+04    3.8309158E+06   -3.8842563E+03    4.0306023E+06
    3.02   800.000   -3.003E+02    4.0400876E+06    3.1417974E+03   -2.6043572E+04    3.8303902E+06   -3.1418098E+03    4.0400876E+06
    3.03   800.000   -3.008E+02    4.0588249E+06    2.4534669E+03   -2.2331018E+04    3.8389278E+06   -2.4534798E+03    4.0588250E+06
    3.04   800.000   -3.013E+02    4.0861849E+06    1.8229735E+03   -1.8358287E+04    3.8557858E+06   -1.8229869E+03    4.0861849E+06
    3.05   800.000   -3.018E+02    4.1214480E+06    1.2559948E+03   -1.4211391E+04    3.8801734E+06   -1.2560086E+03    4.1214480E+06
    3.06   800.000   -3.023E+02    4.1638164E+06    7.5947875E+02   -9.9752969E+03    3.9112671E+06   -7.5949298E+02    4.1638164E+06
    3.07   800.000   -3.028E+02    4.2124230E+06    3.4083299E+02   -5.7274002E+03    3.9482216E+06   -3.4084764E+02    4.2124231E+06
    3.08   800.000   -3.033E+02    4.2663404E+06    7.0592976E+00   -1.5317381E+03    3.9901754E+06   -7.0743594E+00    4.2663404E+06
    3.09   800.000   -3.038E+02    4.3245889E+06   -2.3611986E+02    2.5652771E+03    4.0362537E+06    2.3610441E+02    4.3245889E+06
    3.10   800.000   -3.043E+02    4.3861474E+06   -3.8510718E+02    6.5369944E+03    4.0855695E+06    3.8509136E+02    4.3861474E+06
    3.11   800.000   -3.048E+02    4.4499670E+06   -4.3920291E+02    1.0376180E+04    4.1372264E+06    4.3918674E+02    4.4499670E+06
    3.12   800.000   -3.053E+02    4.5149899E+06   -4.0123555E+02    1.4092159E+04    4.1903256E+06    4.0121903E+02    4.5149899E+06
    3.13   800.000   -3.058E+02    4.5801733E+06   -2.7796302E+02    1.7705720E+04    4.2439773E+06    2.7794616E+02    4.5801733E+06
    3.14   800.000   -3.063E+02    4.6445176E+06   -8.0155968E+01    2.1242401E+04    4.2973183E+06    8.0138738E+01    4.6445176E+06
    3.15   800.000   -3.068E+02    4.7070967E+06    1.7769651E+02    2.4724962E+04    4.3495347E+06   -1.7771413E+02    4.7070968E+06
    3.16   800.000   -3.073E+02    4.7670866E+06    4.7806322E+02    2.8166050E+04    4.3998851E+06   -4.7808128E+02    4.7670867E+06
    3.17   800.000   -3.078E+02    4.8237889E+06    8.0136682E+02    3.1562016E+04    4.4477242E+06   -8.0138538E+02    4.8237889E+06
    3.18   800.000   -3.083E+02    4.8766460E+06    1.1271792E+03    3.4888754E+04    4.4925209E+06   -1.1271984E+03    4.8766460E+06
    3.19   800.000   -3.088E+02    4.9252450E+06    1.4354672E+03    3.8100150E+04    4.5338692E+06   -1.4354869E+03    4.9252450E+06
    3.20   800.000   -3.093E+02    4.9693113E+06    1.7077442E+03    4.1129412E+04    4.5714913E+06   -1.7077646E+03    4.9693113E+06
    3.21   800.000   -3.098E+02    5.0086905E+06    1.9280204E+03    4.3893147E+04    4.6052310E+06   -1.9280415E+03    5.0086906E+06
    3.22   800.000   -3.102E+02    5.0433253E+06    2.0834890E+03    4.6297720E+04    4.6350406E+06   -2.0835108E+03    5.0433253E+06
    3.23   800.000   -3.107E+02    5.0732281E+06    2.1649286E+03    4.8247135E+04    4.6609634E+06   -2.1649511E+03    5.0732281E+06
    3.24   800.000   -3.112E+02    5.0984562E+06    2.1668257E+03    4.9651523E+04    4.6831141E+06   -2.1668489E+03    5.0984562E+06
    3.25   800.000   -3.116E+02    5.1190923E+06    2.0872315E+03    5.0435254E+04    4.7016610E+06   -2.0872553E+03    5.1190923E+06
    3.26   800.000   -3.121E+02    5.1352334E+06    1.9273688E+03    5.0543771E+04    4.7168126E+06   -1.9273932E+03    5.1352334E+06
    3.27   800.000   -3.126E+02    5.1469883E+06    1.6910182E+03    4.9948388E+04    4.7288086E+06   -1.6910430E+03    5.1469883E+06
    3.28   800.000   -3.130E+02    5.1544840E+06    1.3837338E+03    4.8648547E+04    4.7379172E+06   -1.3837588E+03    5.1544840E+06
    3.29   800.000   -3.134E+02    5.1578771E+06    1.0119766E+03    4.6671303E+04    4.7444365E+06   -1.0120017E+03    5.1578771E+06
    3.30   800.000   -3.139E+02    5.1573681E+06    5.8228489E+02    4.4068135E+04    4.7486976E+06   -5.8230992E+02    5.1573681E+06
    3.31   800.000   -3.143E+02    5.1532125E+06    1.0061416E+02    4.0909510E+04    4.7510670E+06   -1.0063891E+02    5.1532125E+06
    3.32   800.000   -3.147E+02    5.1457270E+06   -4.2803708E+02    3.7277881E+04    4.7519451E+06    4.2801279E+02    5.1457270E+06
    3.33   800.000   -3.151E+02    5.1352863E+06   -9.9965054E+02    3.3260015E+04    4.7517582E+06    9.9962687E+02    5.1352864E+06
    3.34   800.000   -3.155E+02    5.1223113E+06   -1.6108678E+03    2.8939611E+04    4.7509429E+06    1.6108449E+03    5.1223113E+06
    3.35   800.000   -3.159E+02    5.1072483E+06   -2.2584081E+03    2.4391123E+04    4.7499258E+06    2.2583862E+03    5.1072483E+06
    3.36   800.000   -3.163E+02    5.0905429E+06   -2.9383600E+03    1.9675540E+04    4.7490969E+06    2.9383391E+03    5.0905429E+06
    3.37   800.000   -3.167E+02    5.0726120E+06   -3.6454989E+03    1.4838599E+04    4.7487842E+06    3.6454791E+03    5.0726120E+06
    3.38   800.000   -3.171E+02    5.0538176E+06   -4.3727593E+03    9.9116068E+03    4.7492307E+06    4.3727406E+03    5.0538176E+06
    3.39   800.000   -3.175E+02    5.0344463E+06   -5.1109339E+03    4.9146834E+03    4.7505779E+06    5.1109164E+03    5.0344464E+06
    3.40   800.000   -3.178E+02    5.0146968E+06   -5.8486077E+03   -1.3808711E+02    4.7528579E+06    5.8485914E+03    5.0146968E+06
    3.41   800.000   -3.182E+02    4.9946757E+06   -6.5722827E+03   -5.2323770E+03    4.7559947E+06    6.5722676E+03    4.9946758E+06
    3.42   800.000   -3.185E+02    4.9744023E+06   -7.2666278E+03   -1.0347190E+04    4.7598118E+06    7.2666138E+03    4.9744023E+06
    3.43   800.000   -3.189E+02    4.9538188E+06   -7.9148038E+03   -1.5449328E+04    4.7640451E+06    7.9147908E+03    4.9538188E+06
    3.44   800.000   -3.192E+02    4.9328063E+06   -8.4988546E+03   -2.0489698E+04    4.7683564E+06    8.4988425E+03    4.9328063E+06
    3.45   800.000   -3.196E+02    4.9112014E+06   -9.0002024E+03   -2.5402206E+04    4.7723443E+06    9.0001912E+03    4.9112014E+06
    3.46   800.000   -3.199E+02    4.8888138E+06   -9.4003156E+03   -3.0105598E+04    4.7755505E+06    9.4003051E+03    4.8888138E+06
    3.47   800.000   -3.202E+02    4.8654418E+06   -9.6816112E+03   -3.4508225E+04    4.7774610E+06    9.6816014E+03    4.8654418E+06
    3.48   800.000   -3.205E+02    4.8408845E+06   -9.8286116E+03   -3.8515263E+04    4.7775039E+06    9.8286025E+03    4.8408845E+06
    3.49   800.000   -3.208E+02    4.8149520E+06   -9.8292987E+03   -4.2037509E+04    4.7750456E+06    9.8292902E+03    4.8149520E+06
    3.50   800.000   -3.212E+02    4.7874707E+06   -9.6765258E+03   -4.5000634E+04    4.7693910E+06    9.6765179E+03    4.7874706E+06
    3.51   800.000   -3.215E+02    4.7582864E+06   -9.3692789E+03   -4.7353664E+04    4.7597916E+06    9.3692717E+03    4.7582864E+06
    3.52   800.000   -3.218E+02    4.7272655E+06   -8.9135542E+03   -4.9075510E+04    4.7454636E+06    8.9135476E+03    4.7272655E+06
    3.53   800.000   -3.221E+02    4.6942935E+06   -8.3226410E+03   -5.0178674E+04    4.7256216E+06    8.3226351E+03    4.6942935E+06
    3.54   800.000   -3.224E+02    4.6592744E+06   -7.6166794E+03   -5.0709629E+04    4.6995237E+06    7.6166744E+03    4.6592744E+06
    3.55   800.000   -3.226E+02    4.6221310E+06   -6.8214677E+03   -5.0745868E+04    4.6665287E+06    6.8214636E+03    4.6221310E+06
    3.56   800.000   -3.229E+02    4.5828064E+06   -5.9666174E+03   -5.0390034E+04    4.6261580E+06    5.9666143E+03    4.5828064E+06
    3.57   800.000   -3.232E+02    4.5412681E+06   -5.0832517E+03   -4.9761936E+04    4.5781549E+06    5.0832497E+03    4.5412681E+06
    3.58   800.000   -3.235E+02    4.4975140E+06   -4.2015122E+03   -4.8989426E+04    4.5225342E+06    4.2015113E+03    4.4975140E+06
    3.59   800.000   -3.238E+02    4.4515785E+06   -3.3481532E+03   -4.8199173E+04    4.4596117E+06    3.3481534E+03    4.4515785E+06
    3.60   800.000   -3.241E+02    4.4035398E+06   -2.5444852E+03   -4.7508239E+04    4.3900102E+06    2.5444866E+03    4.4035397E+06
    3.61   800.000   -3.244E+02    4.3535239E+06   -1.8048717E+03   -4.7017171E+04    4.3146384E+06    1.8048742E+03    4.3535238E+06
    3.62   800.000   -3.247E+02    4.3017084E+06   -1.1359081E+03   -4.6805026E+04    4.2346444E+06    1.1359117E+03    4.3017084E+06
    3.63   800.000   -3.250E+02    4.2483226E+06   -5.3633619E+02   -4.6926506E+04    4.1513497E+06    5.3634065E+02    4.2483226E+06
    3.64   800.000   -3.252E+02    4.1936450E+06    2.3360994E+00   -4.7411099E+04    4.0661720E+06   -2.3308582E+00    4.1936450E+06
    3.65   800.000   -3.255E+02    4.1379999E+06    4.9459998E+02   -4.8263940E+04    3.9805467E+06   -4.9459413E+02    4.1379999E+06
    3.66   800.000   -3.258E+02    4.0817522E+06    9.5924381E+02   -4.9467963E+04    3.8958555E+06   -9.5923755E+02    4.0817522E+06
    3.67   800.000   -3.261E+02    4.0253023E+06    1.4173628E+03   -5.0986857E+04    3.8133705E+06   -1.4173564E+03    4.0253022E+06
    3.68   800.000   -3.264E+02    3.9690816E+06    1.8902775E+03   -5.2768336E+04    3.7342167E+06   -1.8902711E+03    3.9690816E+06
    3.69   800.000   -3.267E+02    3.9135494E+06    2.3975542E+03   -5.4747390E+04    3.6593552E+06   -2.3975482E+03    3.9135494E+06
    3.70   800.000   -3.270E+02    3.8591913E+06    2.9553029E+03   -5.6849315E+04    3.5895843E+06   -2.9552975E+03    3.8591913E+06
    3.71   800.000   -3.273E+02    3.8065181E+06    3.5748885E+03   -5.8992552E+04    3.5255551E+06   -3.5748840E+03    3.8065181E+06
    3.72   800.000   -3.276E+02    3.7560661E+06    4.2621482E+03   -6.1091519E+04    3.4677953E+06   -4.2621449E+03    3.7560661E+06
    3.73   800.000   -3.279E+02    3.7083960E+06    5.0171496E+03   -6.3059731E+04    3.4167363E+06   -5.0171478E+03    3.7083960E+06
    3.74   800.000   -3.282E+02    3.6640894E+06    5.8344688E+03   -6.4813439E+04    3.3727385E+06   -5.8344687E+03    3.6640894E+06
    3.75   800.000   -3.285E+02    3.6237414E+06    6.7039194E+03   -6.6275895E+04    3.3361107E+06   -6.7039212E+03    3.6237414E+06
    3.76   800.000   -3.288E+02    3.5879493E+06    7.6116213E+03   -6.7382095E+04    3.3071220E+06   -7.6116253E+03    3.5879493E+06
    3.77   800.000   -3.291E+02    3.5572948E+06    8.5412734E+03   -6.8083573E+04    3.2860061E+06   -8.5412798E+03    3.5572948E+06
    3.78   800.000   -3.294E+02    3.5323240E+06    9.4754834E+03   -6.8352633E+04    3.2729592E+06   -9.4754923E+03    3.5323239E+06
    3.79   800.000   -3.297E+02    3.5135247E+06    1.0397013E+04   -6.8185281E+04    3.2681335E+06   -1.0397025E+04    3.5135247E+06
    3.80   800.000   -3.300E+02    3.5013061E+06    1.1289817E+04   -6.7602208E+04    3.2716311E+06   -1.1289831E+04    3.5013061E+06
    3.81   800.000   -3.303E+02    3.4959827E+06    1.2139774E+04   -6.6647415E+04    3.2834995E+06   -1.2139792E+04    3.4959827E+06
    3.82   800.000   -3.306E+02    3.4977674E+06    1.2935068E+04   -6.5384441E+04    3.3037325E+06   -1.2935088E+04    3.4977674E+06
    3.83   800.000   -3.309E+02    3.5067759E+06    1.3666177E+04   -6.3890620E+04    3.3322788E+06   -1.3666200E+04    3.5067759E+06
    3.84   800.000   -3.312E+02    3.5230427E+06    1.4325523E+04   -6.2250152E+04    3.3690577E+06   -1.4325548E+04    3.5230427E+06
    3.85   800.000   -3.315E+02    3.5465496E+06    1.4906806E+04   -6.0547081E+04    3.4139836E+06   -1.4906834E+04    3.5465495E+06
    3.86   800.000   -3.318E+02    3.5772625E+06    1.5404144E+04   -5.8859256E+04    3.4669948E+06   -1.5404174E+04    3.5772624E+06
    3.87   800.000   -3.321E+02    3.6151745E+06    1.5811102E+04   -5.7254145E+04    3.5280860E+06   -1.5811135E+04    3.6151745E+06
    3.88   800.000   -3.324E+02    3.6603491E+06    1.6119755E+04   -5.5786905E+04    3.5973395E+06   -1.6119789E+04    3.6603491E+06
    3.89   800.000   -3.327E+02    3.7129577E+06    1.6319906E+04   -5.4500531E+04    3.6749510E+06   -1.6319942E+04    3.7129577E+06
    3.90   800.000   -3.330E+02    3.7733083E+06    1.6398595E+04   -5.3427392E+04    3.7612457E+06   -1.6398633E+04    3.7733082E+06
    3.91   800.000   -3.333E+02    3.8418596E+06    1.6339999E+04   -5.2591132E+04    3.8566810E+06   -1.6340038E+04    3.8418595E+06
    3.92   800.000   -3.336E+02    3.9192201E+06    1.6125805E+04   -5.2007911E+04    3.9618349E+06   -1.6125845E+04    3.9192200E+06
    3.93   800.000   -3.340E+02    4.0061306E+06    1.5736080E+04   -5.1686261E+04    4.0773783E+06   -1.5736121E+04    4.0061306E+06
    3.94   800.000   -3.343E+02    4.1034331E+06    1.5150618E+04   -5.1625375E+04    4.2040332E+06   -1.5150659E+04    4.1034330E+06
    3.95   800.000   -3.346E+02    4.2120270E+06    1.4350674E+04   -5.1812217E+04    4.3425184E+06   -1.4350715E+04    4.2120270E+06
    3.96   800.000   -3.349E+02    4.3328175E+06    1.3320957E+04   -5.2218299E+04    4.4934862E+06   -1.3320998E+04    4.3328175E+06
    3.97   800.000   -3.352E+02    4.4666581E+06    1.2051709E+04   -5.2797137E+04    4.6574524E+06   -1.2051750E+04    4.4666580E+06
    3.98   800.000   -3.356E+02    4.6142893E+06    1.0540659E+04   -5.3483299E+04    4.8347229E+06   -1.0540700E+04    4.6142892E+06
    3.99   800.000   -3.359E+02    4.7762770E+06    8.7946663E+03   -5.4193574E+04    5.0253185E+06   -8.7947072E+03    4.7762770E+06
    4.00   800.000   -3.362E+02    4.9529502E+06    6.8308699E+03   -5.4830353E+04    5.2289029E+06   -6.8309105E+03    4.9529501E+06
    4.01   800.000   -3.366E+02    5.1443401E+06    4.6772085E+03   -5.5286869E+04    5.4447153E+06   -4.6772489E+03    5.1443401E+06
    4.02   800.000   -3.369E+02    5.3501230E+06    2.3722540E+03   -5.5453695E+04    5.6715160E+06   -2.3722943E+03    5.3501229E+06
    4.03   800.000   -3.373E+02    5.5695683E+06   -3.5637428E+01   -5.5225812E+04    5.9075483E+06    3.5597330E+01    5.5695683E+06
    4.04   800.000   -3.376E+02    5.8014968E+06   -2.4897765E+03   -5.4509643E+04    6.1505256E+06    2.4897365E+03    5.8014967E+06
    4.05   800.000   -3.380E+02    6.0442519E+06   -4.9270682E+03   -5.3229629E+04    6.3976513E+06    4.9270283E+03    6.0442519E+06
    4.06   800.000   -3.383E+02    6.2956903E+06   -7.2802788E+03   -5.1334071E+04    6.6456741E+06    7.2802390E+03    6.2956902E+06
    4.07   800.000   -3.387E+02    6.5531947E+06   -9.4805260E+03   -4.8800048E+04    6.8909839E+06    9.4804863E+03    6.5531946E+06
    4.08   800.000   -3.391E+02    6.8137145E+06   -1.1459924E+04   -4.5637183E+04    7.1297444E+06    1.1459885E+04    6.8137145E+06
    4.09   800.000   -3.394E+02    7.0738345E+06   -1.3154364E+04   -4.1889940E+04    7.3580563E+06    1.3154325E+04    7.0738344E+06
    4.10   800.000   -3.398E+02    7.3298721E+06   -1.4506421E+04   -3.7637996E+04    7.5721400E+06    1.4506382E+04    7.3298721E+06
    4.11   800.000   -3.402E+02    7.5780007E+06   -1.5468376E+04   -3.2994240E+04    7.7685219E+06    1.5468337E+04    7.5780006E+06
    4.12   800.000   -3.406E+02    7.8143922E+06   -1.6005226E+04   -2.8100024E+04    7.9442094E+06    1.6005188E+04    7.8143922E+06
    4.13   800.000   -3.409E+02    8.0353716E+06   -1.6097481E+04   -2.3117611E+04    8.0968358E+06    1.6097443E+04    8.0353715E+06
    4.14   800.000   -3.413E+02    8.2375731E+06   -1.5743423E+04   -1.8220131E+04    8.2247651E+06    1.5743386E+04    8.2375730E+06
    4.15   800.000   -3.417E+02    8.4180876E+06   -1.4960449E+04   -1.3579866E+04    8.3271461E+06    1.4960412E+04    8.4180875E+06
    4.16   800.000   -3.421E+02    8.5745911E+06   -1.3785160E+04   -9.3560099E+03    8.4039161E+06    1.3785124E+04    8.5745910E+06
    4.17   800.000   -3.425E+02    8.7054446E+06   -1.2271965E+04   -5.6832995E+03    8.4557575E+06    1.2271930E+04    8.7054445E+06
    4.18   800.000   -3.429E+02    8.8097593E+06   -1.0490178E+04   -2.6628408E+03    8.4840177E+06    1.0490143E+04    8.8097592E+06
    4.19   800.000   -3.433E+02    8.8874233E+06   -8.5197930E+03   -3.5619527E+02    8.4906041E+06    8.5197592E+03    8.8874232E+06
    4.20   800.000   -3.437E+02    8.9390880E+06   -6.4463483E+03    1.2166872E+03    8.4778674E+06    6.4463152E+03    8.9390879E+06
    4.21   800.000   -3.440E+02    8.9661182E+06   -4.3554045E+03    2.0756472E+03    8.4484851E+06    4.3553721E+03    8.9661181E+06
    4.22   800.000   -3.444E+02    8.9705094E+06   -2.3272269E+03    2.2750790E+03    8.4053519E+06    2.3271951E+03    8.9705094E+06
    4.23   800.000   -3.448E+02    8.9547811E+06   -4.3219727E+02    1.8961396E+03    8.3514815E+06    4.3216606E+02    8.9547811E+06
    4.24   800.000   -3.452E+02    8.9218521E+06    1.2726424E+03    1.0374751E+03    8.2899203E+06   -1.2726732E+03    8.9218520E+06
    4.25   800.000   -3.456E+02    8.8749080E+06    2.7456876E+03   -1.9444159E+02    8.2236699E+06   -2.7457179E+03    8.8749079E+06
    4.26   800.000   -3.460E+02    8.8172671E+06    3.9614626E+03   -1.6943952E+03    8.1556160E+06   -3.9614925E+03    8.8172670E+06
    4.27   800.000   -3.463E+02    8.7522511E+06    4.9100166E+03   -3.3661995E+03    8.0884601E+06   -4.9100463E+03    8.7522511E+06
    4.28   800.000   -3.467E+02    8.6830651E+06    5.5952504E+03   -5.1286908E+03    8.0246550E+06   -5.5952799E+03    8.6830650E+06
    4.29   800.000   -3.471E+02    8.6126899E+06    6.0324693E+03   -6.9197475E+03    7.9663423E+06   -6.0324987E+03    8.6126898E+06
    4.30   800.000   -3.475E+02    8.5437901E+06    6.2454884E+03   -8.6983532E+03    7.9152971E+06   -6.2455178E+03    8.5437901E+06
    4.31   800.000   -3.478E+02    8.4786390E+06    6.2636100E+03   -1.0444877E+04    7.8728815E+06   -6.2636394E+03    8.4786390E+06
    4.32   800.000   -3.482E+02    8.4190621E+06    6.1187616E+03   -1.2159809E+04    7.8400132E+06   -6.1187912E+03    8.4190621E+06
    4.33   800.000   -3.486E+02    8.3664017E+06    5.8430312E+03   -1.3861205E+04    7.8171506E+06   -5.8430610E+03    8.3664017E+06
    4.34   800.000   -3.490E+02    8.3215036E+06    5.4667588E+03   -1.5581052E+04    7.8042984E+06   -5.4667890E+03    8.3215036E+06
    4.35   800.000   -3.493E+02    8.2847266E+06    5.0172584E+03   -1.7360717E+04    7.8010329E+06   -5.0172889E+03    8.2847265E+06
    4.36   800.000   -3.497E+02    8.2559750E+06    4.5181445E+03   -1.9245673E+04    7.8065483E+06   -4.5181756E+03    8.2559749E+06
    4.37   800.000   -3.501E+02    8.2347537E+06    3.9891583E+03   -2.1279712E+04    7.8197196E+06   -3.9891901E+03    8.2347537E+06
    4.38   800.000   -3.505E+02    8.2202417E+06    3.4463279E+03   -2.3499033E+04    7.8391807E+06   -3.4463606E+03    8.2202417E+06
    4.39   800.000   -3.508E+02    8.2113814E+06    2.9022881E+03   -2.5926732E+04    7.8634114E+06   -2.9023218E+03    8.2113814E+06
    4.40   800.000   -3.512E+02    8.2069769E+06    2.3666130E+03   -2.8568406E+04    7.8908299E+06   -2.3666478E+03    8.2069769E+06
    4.41   800.000   -3.516E+02    8.2057959E+06    1.8460859E+03   -3.1409596E+04    7.9198843E+06   -1.8461219E+03    8.2057959E+06
    4.42   800.000   -3.520E+02    8.2066675E+06    1.3449064E+03   -3.4415711E+04    7.9491372E+06   -1.3449435E+03    8.2066674E+06
    4.43   800.000   -3.523E+02    8.2085680E+06    8.6490353E+02   -3.7534698E+04    7.9773396E+06   -8.6494193E+02    8.2085680E+06
    4.44   800.000   -3.527E+02    8.2106905E+06    4.0584946E+02   -4.0702249E+04    8.0034888E+06   -4.0588913E+02    8.2106904E+06
    4.45   800.000   -3.531E+02    8.2124906E+06   -3.4056349E+01   -4.3848767E+04    8.0268671E+06    3.4015453E+01    8.2124905E+06
    4.46   800.000   -3.535E+02    8.2137078E+06   -4.5752570E+02   -4.6906856E+04    8.0470603E+06    4.5748363E+02    8.2137078E+06
    4.47   800.000   -3.539E+02    8.2143609E+06   -8.6742278E+02   -4.9817905E+04    8.0639539E+06    8.6737964E+02    8.2143609E+06
    4.48   800.000   -3.543E+02    8.2147185E+06   -1.2660564E+03   -5.2536496E+04    8.0777097E+06    1.2660124E+03    8.2147185E+06
    4.49   800.000   -3.547E+02    8.2152513E+06   -1.6546953E+03   -5.5031902E+04    8.0887227E+06    1.6546504E+03    8.2152513E+06
    4.50   800.000   -3.551E+02    8.2165687E+06   -2.0334396E+03   -5.7286653E+04    8.0975636E+06    2.0333941E+03    8.2165687E+06
    4.51   800.000   -3.555E+02    8.2193494E+06   -2.4014938E+03   -5.9292921E+04    8.1049112E+06    2.4014478E+03    8.2193493E+06
    4.52   800.000   -3.559E+02    8.2242708E+06   -2.7577714E+03   -6.1047966E+04    8.1114789E+06    2.7577252E+03    8.2242708E+06
    4.53   800.000   -3.563E+02    8.2319442E+06   -3.1016675E+03   -6.2550062E+04    8.1179430E+06    3.1016213E+03    8.2319441E+06
    4.54   800.000   -3.567E+02    8.2428591E+06   -3.4337863E+03   -6.3795994E+04    8.1248770E+06    3.4337403E+03    8.2428591E+06
    4.55   800.000   -3.571E+02    8.2573404E+06   -3.7564257E+03   -6.4780716E+04    8.1326979E+06    3.7563802E+03    8.2573404E+06
    4.56   800.000   -3.575E+02    8.2755159E+06   -4.0736884E+03   -6.5499025E+04    8.1416258E+06    4.0736437E+03    8.2755159E+06
    4.57   800.000   -3.579E+02    8.2972967E+06   -4.3911855E+03   -6.5948610E+04    8.1516610E+06    4.3911418E+03    8.2972967E+06
    4.58   800.000   -3.584E+02    8.3223636E+06   -4.7153960E+03   -6.6133509E+04    8.1625756E+06    4.7153536E+03    8.3223636E+06
    4.59   800.000   -3.588E+02    8.3501606E+06   -5.0528155E+03   -6.6067027E+04    8.1739201E+06    5.0527748E+03    8.3501606E+06
    4.60   800.000   -3.592E+02    8.3798936E+06   -5.4090577E+03   -6.5773404E+04    8.1850403E+06    5.4090189E+03    8.3798937E+06
    4.61   800.000   -3.596E+02    8.4105336E+06   -5.7880649E+03   -6.5287863E+04    8.1951043E+06    5.7880284E+03    8.4105336E+06
    4.62   800.000   -3.601E+02    8.4408278E+06   -6.1915377E+03   -6.4654997E+04    8.2031352E+06    6.1915038E+03    8.4408278E+06
    4.63   800.000   -3.605E+02    8.4693223E+06   -6.6186356E+03   -6.3925731E+04    8.2080490E+06    6.6186046E+03    8.4693223E+06
    4.64   800.000   -3.609E+02    8.4943985E+06   -7.0659392E+03   -6.3153231E+04    8.2086957E+06    7.0659115E+03    8.4943985E+06
    4.65   800.000   -3.613E+02    8.5143262E+06   -7.5276208E+03   -6.2388222E+04    8.2039051E+06    7.5275966E+03    8.5143262E+06
    4.66   800.000   -3.618E+02    8.5273338E+06   -7.9957510E+03   -6.1674204E+04    8.1925332E+06    7.9957306E+03    8.5273338E+06
    4.67   800.000   -3.622E+02    8.5316908E+06   -8.4606751E+03   -6.1043055E+04    8.1735124E+06    8.4606587E+03    8.5316908E+06
    4.68   800.000   -3.627E+02    8.5257995E+06   -8.9114155E+03   -6.0511465E+04    8.1459006E+06    8.9114033E+03    8.5257995E+06
    4.69   800.000   -3.631E+02    8.5082852E+06   -9.3360861E+03   -6.0078606E+04    8.1089297E+06    9.3360783E+03    8.5082852E+06
    4.70   800.000   -3.635E+02    8.4780776E+06   -9.7223273E+03   -5.9725286E+04    8.0620496E+06    9.7223238E+03    8.4780776E+06
    4.71   800.000   -3.640E+02    8.4344758E+06   -1.0057780E+04   -5.9414696E+04    8.0049647E+06    1.0057781E+04    8.4344758E+06
    4.72   800.000   -3.644E+02    8.3771895E+06   -1.0330620E+04   -5.9094656E+04    7.9376611E+06    1.0330625E+04    8.3771895E+06
    4.73   800.000   -3.648E+02    8.3063544E+06   -1.0530160E+04   -5.8701088E+04    7.8604198E+06    1.0530169E+04    8.3063544E+06
    4.74   800.000   -3.653E+02    8.2225209E+06   -1.0647511E+04   -5.8162310E+04    7.7738152E+06    1.0647524E+04    8.2225209E+06
    4.75   800.000   -3.657E+02    8.1266188E+06   -1.0676277E+04   -5.7403705E+04    7.6786981E+06    1.0676294E+04    8.1266188E+06
    4.76   800.000   -3.661E+02    8.0199018E+06   -1.0613230E+04   -5.6352354E+04    7.5761605E+06    1.0613251E+04    8.0199018E+06
    4.77   800.000   -3.665E+02    7.9038760E+06   -1.0458913E+04   -5.4941362E+04    7.4674869E+06    1.0458936E+04    7.9038759E+06
    4.78   800.000   -3.669E+02    7.7802177E+06   -1.0218076E+04   -5.3113728E+04    7.3540914E+06    1.0218102E+04    7.7802177E+06
    4.79   800.000   -3.674E+02    7.6506860E+06   -9.8999038E+03   -5.0825781E+04    7.2374465E+06    9.8999324E+03    7.6506859E+06
    4.80   800.000   -3.678E+02    7.5170328E+06   -9.5179592E+03   -4.8050224E+04    7.1190058E+06    9.5179897E+03    7.5170328E+06
    4.81   800.000   -3.682E+02    7.3809184E+06   -9.0898205E+03   -4.4778809E+04    7.0001291E+06    9.0898526E+03    7.3809183E+06
    4.82   800.000   -3.686E+02    7.2438347E+06   -8.6363996E+03   -4.1024585E+04    6.8820116E+06    8.6364329E+03    7.2438346E+06
    4.83   800.000   -3.690E+02    7.1070440E+06   -8.1809491E+03   -3.6823486E+04    6.7656259E+06    8.1809832E+03    7.1070440E+06
    4.84   800.000   -3.694E+02    6.9715365E+06   -7.7477832E+03   -3.2234967E+04    6.6516795E+06    7.7478179E+03    6.9715365E+06
    4.85   800.000   -3.698E+02    6.8380103E+06   -7.3607669E+03   -2.7341292E+04    6.5405920E+06    7.3608017E+03    6.8380103E+06
    4.86   800.000   -3.701E+02    6.7068754E+06   -7.0416546E+03   -2.2245188E+04    6.4324933E+06    7.0416892E+03    6.7068754E+06
    4.87   800.000   -3.705E+02    6.5782806E+06   -6.8084066E+03   -1.7065710E+04    6.3272427E+06    6.8084407E+03    6.5782806E+06
    4.88   800.000   -3.709E+02    6.4521588E+06   -6.6736429E+03   -1.1932435E+04    6.2244678E+06    6.6736762E+03    6.4521588E+06
    4.89   800.000   -3.713E+02    6.3282852E+06   -6.6434155E+03   -6.9784080E+03    6.1236167E+06    6.6434478E+03    6.3282852E+06
    4.90   800.000   -3.716E+02    6.2063405E+06   -6.7164659E+03   -2.3325660E+03    6.0240212E+06    6.7164968E+03    6.2063405E+06
    4.91   800.000   -3.720E+02    6.0859712E+06   -6.8840908E+03    1.8874870E+03    5.9249612E+06    6.8841202E+03    6.0859712E+06
    4.92   800.000   -3.724E+02    5.9668401E+06   -7.1306679E+03    5.5814805E+03    5.8257266E+06    7.1306954E+03    5.9668401E+06
    4.93   800.000   -3.727E+02    5.8486607E+06   -7.4348091E+03    8.6706212E+03    5.7256681E+06    7.4348346E+03    5.8486607E+06
    4.94   800.000   -3.731E+02    5.7312139E+06   -7.7710365E+03    1.1099636E+04    5.6242353E+06    7.7710596E+03    5.7312139E+06
    4.95   800.000   -3.734E+02    5.6143456E+06   -8.1118137E+03    1.2836922E+04    5.5209957E+06    8.1118344E+03    5.6143456E+06
    4.96   800.000   -3.738E+02    5.4979488E+06   -8.4297384E+03    1.3873374E+04    5.4156385E+06    8.4297566E+03    5.4979488E+06
    4.97   800.000   -3.741E+02    5.3819339E+06   -8.6996904E+03    1.4220610E+04    5.3079617E+06    8.6997058E+03    5.3819339E+06
    4.98   800.000   -3.744E+02    5.2661941E+06   -8.9007452E+03    1.3909264E+04    5.1978493E+06    8.9007578E+03    5.2661941E+06
    4.99   800.000   -3.747E+02    5.1505718E+06   -9.0176958E+03    1.2987736E+04    5.0852419E+06    9.0177055E+03    5.1505717E+06
    5.00   800.000   -3.751E+02    5.0348321E+06   -9.0420662E+03    1.1521415E+04    4.9701072E+06    9.0420731E+03    5.0348321E+06
# T(K) = 900.00   Npoints =    1001   V(cm^3) =  1.231E-20
   -5.00   900.000    3.460E+02    1.5627632E+06   -9.4204667E+02   -2.4089230E+04    1.5034243E+06    9.4203886E+02    1.5627632E+06
   -4.99   900.000    3.452E+02    1.5678448E+06   -7.5532877E+02   -2.2162478E+04    1.5080359E+06    7.5532055E+02    1.5678448E+06
   -4.98   900.000    3.444E+02    1.5695582E+06   -5.7720195E+02   -2.0176206E+04    1.5095660E+06    5.7719330E+02    1.5695582E+06
   -4.97   900.000    3.436E+02    1.5680447E+06   -4.0693999E+02   -1.8161825E+04    1.5081346E+06    4.0693090E+02    1.5680448E+06
   -4.96   900.000    3.429E+02    1.5634630E+06   -2.4388601E+02   -1.6149476E+04    1.5038698E+06    2.4387645E+02    1.5634630E+06
   -4.95   900.000    3.421E+02    1.5559830E+06   -8.7601409E+01   -1.4167126E+04    1.4969050E+06    8.7591360E+01    1.5559830E+06
   -4.94   900.000    3.414E+02    1.5457801E+06    6.2033963E+01   -1.2239913E+04    1.4873758E+06   -6.2044508E+01    1.5457801E+06
   -4.93   900.000    3.406E+02    1.5330294E+06    2.0477683E+02   -1.0389752E+04    1.4754174E+06   -2.0478788E+02    1.5330294E+06
   -4.92   900.000    3.399E+02    1.5179007E+06    3.4003028E+02   -8.6351759E+03    1.4611624E+06   -3.4004184E+02    1.5179007E+06
   -4.91   900.000    3.391E+02    1.5005547E+06    4.6690201E+02   -6.9913686E+03    1.4447381E+06   -4.6691407E+02    1.5005547E+06
   -4.90   900.000    3.384E+02    1.4811400E+06    5.8429981E+02   -5.4703279E+03    1.4262662E+06   -5.8431236E+02    1.4811401E+06
   -4.89   900.000    3.377E+02    1.4597923E+06    6.9105026E+02   -4.0810931E+03    1.4058615E+06   -6.9106328E+02    1.4597923E+06
   -4.88   900.000    3.370E+02    1.4366337E+06    7.8602529E+02   -2.8299934E+03    1.3836322E+06   -7.8603877E+02    1.4366337E+06
   -4.87   900.000    3.363E+02    1.4117739E+06    8.6826213E+02   -1.7208814E+03    1.3596806E+06   -8.6827602E+02    1.4117739E+06
   -4.86   900.000    3.356E+02    1.3853123E+06    9.3706402E+02   -7.5533743E+02    1.3341042E+06   -9.3707828E+02    1.3853123E+06
   -4.85   900.000    3.349E+02    1.3573399E+06    9.9207239E+02    6.7155674E+01    1.3069972E+06   -9.9208698E+02    1.3573399E+06
   -4.84   900.000    3.342E+02    1.3279421E+06    1.0333049E+03    7.4905735E+02    1.2784523E+06   -1.0333197E+03    1.3279421E+06
   -4.83   900.000    3.336E+02    1.2972013E+06    1.0611575E+03    1.2946187E+03    1.2485619E+06   -1.0611726E+03    1.2972013E+06
   -4.82   900.000    3.329E+02    1.2651989E+06    1.0763736E+03    1.7097206E+03    1.2174200E+06   -1.0763889E+03    1.2651989E+06
   -4.81   900.000    3.323E+02    1.2320184E+06    1.0799855E+03    2.0016887E+03    1.1851232E+06   -1.0800009E+03    1.2320184E+06
   -4.80   900.000    3.316E+02    1.1977465E+06    1.0732373E+03    2.1790767E+03    1.1517719E+06   -1.0732527E+03    1.1977465E+06
   -4.79   900.000    3.310E+02    1.1624750E+06    1.0574997E+03    2.2514174E+03    1.1174712E+06   -1.0575151E+03    1.1624750E+06
   -4.78   900.000    3.304E+02    1.1263026E+06    1.0341864E+03    2.2289471E+03    1.0823312E+06   -1.0342017E+03    1.1263026E+06
   -4.77   900.000    3.298E+02    1.0893353E+06    1.0046819E+03    2.1223133E+03    1.0464678E+06   -1.0046970E+03    1.0893353E+06
   -4.76   900.000    3.292E+02    1.0516877E+06    9.7028689E+02    1.9422839E+03    1.0100030E+06   -9.7030187E+02    1.0516878E+06
   -4.75   900.000    3.286E+02    1.0134835E+06    9.3218453E+02    1.6994749E+03    9.7306466E+05   -9.3219928E+02    1.0134835E+06
   -4.74   900.000    3.281E+02    9.7485498E+05    8.9142731E+02    1.4041178E+03    9.3578657E+05   -8.9144178E+02    9.7485499E+05
   -4.73   900.000    3.275E+02    9.3594323E+05    8.4894161E+02    1.0658810E+03    8.9830805E+05   -8.4895577E+02    9.3594324E+05
   -4.72   900.000    3.269E+02    8.9689693E+05    8.0554461E+02    6.9375487E+02    8.6077323E+05   -8.0555840E+02    8.9689694E+05
   -4.71   900.000    3.264E+02    8.5787097E+05    7.6196727E+02    2.9600273E+02    8.2333014E+05   -7.6198068E+02    8.5787098E+05
   -4.70   900.000    3.259E+02    8.1902461E+05    7.1887795E+02   -1.1983016E+02    7.8612938E+05   -7.1889092E+02    8.1902462E+05
   -4.69   900.000    3.253E+02    7.8051917E+05    6.7690159E+02   -5.4686220E+02    7.4932264E+05   -6.7691410E+02    7.8051918E+05
   -4.68   900.000    3.248E+02    7.4251557E+05    6.3663169E+02   -9.7879381E+02    7.1306090E+05   -6.3664372E+02    7.4251558E+05
   -4.67   900.000    3.243E+02    7.0517167E+05    5.9863353E+02   -1.4098166E+03    6.7749252E+05   -5.9864504E+02    7.0517169E+05
   -4.66   900.000    3.237E+02    6.6863974E+05    5.6343861E+02   -1.8345294E+03    6.4276135E+05   -5.6344959E+02    6.6863975E+05
   -4.65   900.000    3.232E+02    6.3306407E+05    5.3153168E+02   -2.2478741E+03    6.0900477E+05   -5.3154212E+02    6.3306408E+05
   -4.64   900.000    3.227E+02    5.9857887E+05    5.0333224E+02   -2.6450959E+03    5.7635195E+05   -5.0334212E+02    5.9857888E+05
   -4.63   900.000    3.221E+02    5.6530657E+05    4.7917307E+02   -3.0217327E+03    5.4492222E+05   -4.7918239E+02    5.6530658E+05
   -4.62   900.000    3.216E+02    5.3335644E+05    4.5927881E+02   -3.3736302E+03    5.1482364E+05   -4.5928758E+02    5.3335645E+05
   -4.61   900.000    3.210E+02    5.0282354E+05    4.4374754E+02   -3.6969782E+03    4.8615182E+05   -4.4375575E+02    5.0282355E+05
   -4.60   900.000    3.205E+02    4.7378806E+05    4.3253799E+02   -3.9883646E+03    4.5898880E+05   -4.3254565E+02    4.7378807E+05
   -4.59   900.000    3.199E+02    4.4631493E+05    4.2546487E+02   -4.2448390E+03    4.3340220E+05   -4.2547199E+02    4.4631494E+05
   -4.58   900.000    3.193E+02    4.2045362E+05    4.2220334E+02   -4.4639830E+03    4.0944441E+05   -4.2220995E+02    4.2045363E+05
   -4.57   900.000    3.186E+02    3.9623820E+05    4.2230299E+02   -4.6439813E+03    3.8715193E+05   -4.2230909E+02    3.9623821E+05
   -4.56   900.000    3.180E+02    3.7368761E+05    4.2521000E+02   -4.7836882E+03    3.6654487E+05   -4.2521562E+02    3.7368762E+05
   -4.55   900.000    3.173E+02    3.5280603E+05    4.3029548E+02   -4.8826859E+03    3.4762661E+05   -4.3030064E+02    3.5280604E+05
   -4.54   900.000    3.165E+02    3.3358342E+05    4.3688671E+02   -4.9413284E+03    3.3038358E+05   -4.3689143E+02    3.3358343E+05
   -4.53   900.000    3.158E+02    3.1599621E+05    4.4429817E+02   -4.9607672E+03    3.1478542E+05   -4.4430248E+02    3.1599622E+05
   -4.52   900.000    3.150E+02    3.0000808E+05    4.5185905E+02   -4.9429532E+03    3.0078535E+05   -4.5186298E+02    3.0000809E+05
   -4.51   900.000    3.141E+02    2.8557080E+05    4.5893498E+02   -4.8906122E+03    2.8832093E+05   -4.5893856E+02    2.8557081E+05
   -4.50   900.000    3.132E+02    2.7262519E+05    4.6494252E+02   -4.8071930E+03    2.7731513E+05   -4.6494576E+02    2.7262520E+05
   -4.49   900.000    3.123E+02    2.6110210E+05    4.6935630E+02   -4.6967869E+03    2.6767785E+05   -4.6935924E+02    2.6110210E+05
   -4.48   900.000    3.113E+02    2.5092343E+05    4.7171003E+02   -4.5640231E+03    2.5930768E+05   -4.7171269E+02    2.5092343E+05
   -4.47   900.000    3.102E+02    2.4200320E+05    4.7159296E+02   -4.4139416E+03    2.5209404E+05   -4.7159537E+02    2.4200320E+05
   -4.46   900.000    3.091E+02    2.3424865E+05    4.6864463E+02   -4.2518513E+03    2.4591946E+05   -4.6864681E+02    2.3424865E+05
   -4.45   900.000    3.079E+02    2.2756135E+05    4.6254995E+02   -4.0831752E+03    2.4066209E+05   -4.6255193E+02    2.2756135E+05
   -4.44   900.000    3.067E+02    2.2183843E+05    4.5303682E+02   -3.9132905E+03    2.3619809E+05   -4.5303862E+02    2.2183844E+05
   -4.43   900.000    3.053E+02    2.1697385E+05    4.3987717E+02   -3.7473674E+03    2.3240412E+05   -4.3987880E+02    2.1697385E+05
   -4.42   900.000    3.039E+02    2.1285976E+05    4.2289152E+02   -3.5902116E+03    2.2915959E+05   -4.2289301E+02    2.1285976E+05
   -4.41   900.000    3.024E+02    2.0938804E+05    4.0195613E+02   -3.4461176E+03    2.2634871E+05   -4.0195749E+02    2.0938804E+05
   -4.40   900.000    3.008E+02    2.0645190E+05    3.7701091E+02   -3.3187391E+03    2.2386245E+05   -3.7701215E+02    2.0645190E+05
   -4.39   900.000    2.991E+02    2.0394762E+05    3.4806610E+02   -3.2109844E+03    2.2160005E+05   -3.4806724E+02    2.0394762E+05
   -4.38   900.000    2.974E+02    2.0177636E+05    3.1520556E+02   -3.1249461E+03    2.1947054E+05   -3.1520661E+02    2.0177636E+05
   -4.37   900.000    2.955E+02    1.9984604E+05    2.7858526E+02   -3.0618714E+03    2.1739386E+05   -2.7858623E+02    1.9984604E+05
   -4.36   900.000    2.935E+02    1.9807318E+05    2.3842602E+02   -3.0221774E+03    2.1530189E+05   -2.3842691E+02    1.9807318E+05
   -4.35   900.000    2.914E+02    1.9638463E+05    1.9500068E+02   -3.0055123E+03    2.1313928E+05   -1.9500149E+02    1.9638463E+05
   -4.34   900.000    2.891E+02    1.9471913E+05    1.4861649E+02   -3.0108576E+03    2.1086405E+05   -1.4861724E+02    1.9471912E+05
   -4.33   900.000    2.868E+02    1.9302859E+05    9.9594183E+01   -3.0366628E+03    2.0844799E+05   -9.9594853E+01    1.9302859E+05
   -4.32   900.000    2.844E+02    1.9127908E+05    4.8245314E+01   -3.0809999E+03    2.0587678E+05   -4.8245910E+01    1.9127907E+05
   -4.31   900.000    2.818E+02    1.8945125E+05   -5.1501257E+00   -3.1417224E+03    2.0314984E+05    5.1496068E+00    1.8945124E+05
   -4.30   900.000    2.792E+02    1.8754044E+05   -6.0364397E+01   -3.2166168E+03    2.0027981E+05    6.0363958E+01    1.8754043E+05
   -4.29   900.000    2.764E+02    1.8555618E+05   -1.1723949E+02   -3.3035332E+03    1.9729171E+05    1.1723914E+02    1.8555617E+05
   -4.28   900.000    2.735E+02    1.8352124E+05   -1.7570031E+02   -3.4004877E+03    1.9422167E+05    1.7570004E+02    1.8352123E+05
   -4.27   900.000    2.706E+02    1.8147019E+05   -2.3576264E+02   -3.5057332E+03    1.9111534E+05    2.3576246E+02    1.8147019E+05
   -4.26   900.000    2.675E+02    1.7944762E+05   -2.9753538E+02   -3.6177988E+03    1.8802607E+05    2.9753529E+02    1.7944761E+05
   -4.25   900.000    2.644E+02    1.7750595E+05   -3.6121659E+02   -3.7355018E+03    1.8501276E+05    3.6121660E+02    1.7750595E+05
   -4.24   900.000    2.611E+02    1.7570318E+05   -4.2708342E+02   -3.8579389E+03    1.8213761E+05    4.2708353E+02    1.7570317E+05
   -4.23   900.000    2.578E+02    1.7410041E+05   -4.9547597E+02   -3.9844621E+03    1.7946385E+05    4.9547618E+02    1.7410040E+05
   -4.22   900.000    2.544E+02    1.7275952E+05   -5.6677580E+02   -4.1146458E+03    1.7705352E+05    5.6677610E+02    1.7275952E+05
   -4.21   900.000    2.510E+02    1.7174095E+05   -6.4137946E+02   -4.2482511E+03    1.7496538E+05    6.4137985E+02    1.7174094E+05
   -4.20   900.000    2.475E+02    1.7110166E+05   -7.1966808E+02   -4.3851901E+03    1.7325317E+05    7.1966856E+02    1.7110166E+05
   -4.19   900.000    2.439E+02    1.7089353E+05   -8.0197361E+02   -4.5254911E+03    1.7196402E+05    8.0197418E+02    1.7089353E+05
   -4.18   900.000    2.403E+02    1.7116198E+05   -8.8854258E+02   -4.6692688E+03    1.7113743E+05    8.8854323E+02    1.7116198E+05
   -4.17   900.000    2.367E+02    1.7194501E+05   -9.7949829E+02   -4.8166957E+03    1.7080444E+05    9.7949900E+02    1.7194501E+05
   -4.16   900.000    2.330E+02    1.7327263E+05   -1.0748024E+03   -4.9679771E+03    1.7098727E+05    1.0748032E+03    1.7327263E+05
   -4.15   900.000    2.293E+02    1.7516654E+05   -1.1742176E+03   -5.1233272E+03    1.7169935E+05    1.1742185E+03    1.7516654E+05
   -4.14   900.000    2.256E+02    1.7764010E+05   -1.2772729E+03   -5.2829459E+03    1.7294551E+05    1.2772738E+03    1.7764010E+05
   -4.13   900.000    2.219E+02    1.8069846E+05   -1.3832344E+03   -5.4469933E+03    1.7472253E+05    1.3832353E+03    1.8069846E+05
   -4.12   900.000    2.181E+02    1.8433885E+05   -1.4910847E+03   -5.6155628E+03    1.7701979E+05    1.4910856E+03    1.8433885E+05
   -4.11   900.000    2.144E+02    1.8855087E+05   -1.5995139E+03   -5.7886482E+03    1.7982003E+05    1.5995149E+03    1.8855086E+05
   -4.10   900.000    2.107E+02    1.9331672E+05   -1.7069267E+03   -5.9661065E+03    1.8310010E+05    1.7069277E+03    1.9331671E+05
   -4.09   900.000    2.070E+02    1.9861146E+05   -1.8114673E+03   -6.1476143E+03    1.8683174E+05    1.8114683E+03    1.9861146E+05
   -4.08   900.000    2.034E+02    2.0440310E+05   -1.9110651E+03   -6.3326202E+03    1.9098217E+05    1.9110661E+03    2.0440310E+05
   -4.07   900.000    1.998E+02    2.1065269E+05   -2.0035022E+03   -6.5202959E+03    1.9551470E+05    2.0035031E+03    2.1065269E+05
   -4.06   900.000    1.963E+02    2.1731428E+05   -2.0864998E+03   -6.7094914E+03    2.0038913E+05    2.0865008E+03    2.1731428E+05
   -4.05   900.000    1.928E+02    2.2433507E+05   -2.1578230E+03   -6.8986995E+03    2.0556218E+05    2.1578239E+03    2.2433507E+05
   -4.04   900.000    1.894E+02    2.3165550E+05   -2.2153958E+03   -7.0860402E+03    2.1098775E+05    2.2153966E+03    2.3165550E+05
   -4.03   900.000    1.860E+02    2.3920968E+05   -2.2574219E+03   -7.2692713E+03    2.1661726E+05    2.2574227E+03    2.3920967E+05
   -4.02   900.000    1.828E+02    2.4692598E+05   -2.2825016E+03   -7.4458356E+03    2.2240002E+05    2.2825024E+03    2.4692598E+05
   -4.01   900.000    1.796E+02    2.5472810E+05   -2.2897361E+03   -7.6129506E+03    2.2828370E+05    2.2897368E+03    2.5472810E+05
   -4.00   900.000    1.765E+02    2.6253640E+05   -2.2788102E+03   -7.7677446E+03    2.3421498E+05    2.2788108E+03    2.6253640E+05
   -3.99   900.000    1.735E+02    2.7026966E+05   -2.2500455E+03   -7.9074379E+03    2.4014033E+05    2.2500461E+03    2.7026966E+05
   -3.98   900.000    1.706E+02    2.7784721E+05   -2.2044180E+03   -8.0295635E+03    2.4600706E+05    2.2044185E+03    2.7784721E+05
   -3.97   900.000    1.679E+02    2.8519128E+05   -2.1435356E+03   -8.1322127E+03    2.5176454E+05    2.1435360E+03    2.8519128E+05
   -3.96   900.000    1.652E+02    2.9222944E+05   -2.0695750E+03   -8.2142878E+03    2.5736554E+05    2.0695753E+03    2.9222944E+05
   -3.95   900.000    1.626E+02    2.9889713E+05   -1.9851811E+03   -8.2757400E+03    2.6276766E+05    1.9851813E+03    2.9889713E+05
   -3.94   900.000    1.601E+02    3.0513981E+05   -1.8933330E+03   -8.3177668E+03    2.6793478E+05    1.8933332E+03    3.0513981E+05
   -3.93   900.000    1.578E+02    3.1091493E+05   -1.7971856E+03   -8.3429493E+03    2.7283828E+05    1.7971857E+03    3.1091493E+05
   -3.92   900.000    1.555E+02    3.1619318E+05   -1.6998963E+03   -8.3553099E+03    2.7745814E+05    1.6998963E+03    3.1619318E+05
   -3.91   900.000    1.533E+02    3.2095932E+05   -1.6044476E+03   -8.3602830E+03    2.8178355E+05    1.6044476E+03    3.2095931E+05
   -3.90   900.000    1.512E+02    3.2521212E+05   -1.5134778E+03   -8.3645951E+03    2.8581321E+05    1.5134776E+03    3.2521212E+05
   -3.89   900.000    1.492E+02    3.2896387E+05   -1.4291290E+03   -8.3760609E+03    2.8955503E+05    1.4291288E+03    3.2896387E+05
   -3.88   900.000    1.473E+02    3.3223908E+05   -1.3529235E+03   -8.4033074E+03    2.9302554E+05    1.3529233E+03    3.3223908E+05
   -3.87   900.000    1.455E+02    3.3507289E+05   -1.2856746E+03   -8.4554427E+03    2.9624875E+05    1.2856743E+03    3.3507288E+05
   -3.86   900.000    1.437E+02    3.3750897E+05   -1.2274378E+03   -8.5416873E+03    2.9925479E+05    1.2274375E+03    3.3750897E+05
   -3.85   900.000    1.420E+02    3.3959740E+05   -1.1775046E+03   -8.6709910E+03    3.0207824E+05    1.1775042E+03    3.3959740E+05
   -3.84   900.000    1.403E+02    3.4139235E+05   -1.1344388E+03   -8.8516552E+03    3.0475650E+05    1.1344384E+03    3.4139235E+05
   -3.83   900.000    1.388E+02    3.4294991E+05   -1.0961519E+03   -9.0909816E+03    3.0732795E+05    1.0961514E+03    3.4294990E+05
   -3.82   900.000    1.372E+02    3.4432604E+05   -1.0600124E+03   -9.3949692E+03    3.0983039E+05    1.0600119E+03    3.4432603E+05
   -3.81   900.000    1.357E+02    3.4557475E+05   -1.0229821E+03   -9.7680735E+03    3.1229946E+05    1.0229816E+03    3.4557475E+05
   -3.80   900.000    1.343E+02    3.4674652E+05   -9.8176973E+02   -1.0213040E+04    3.1476738E+05    9.8176923E+02    3.4674652E+05
   -3.79   900.000    1.329E+02    3.4788703E+05   -9.3299265E+02   -1.0730818E+04    3.1726181E+05    9.3299214E+02    3.4788702E+05
   -3.78   900.000    1.315E+02    3.4903620E+05   -8.7333705E+02   -1.1320543E+04    3.1980515E+05    8.7333652E+02    3.4903619E+05
   -3.77   900.000    1.302E+02    3.5022757E+05   -7.9970758E+02   -1.1979585E+04    3.2241394E+05    7.9970703E+02    3.5022757E+05
   -3.76   900.000    1.289E+02    3.5148804E+05   -7.0935893E+02   -1.2703639E+04    3.2509882E+05    7.0935837E+02    3.5148804E+05
   -3.75   900.000    1.276E+02    3.5283790E+05   -6.0000418E+02   -1.3486848E+04    3.2786461E+05    6.0000360E+02    3.5283790E+05
   -3.74   900.000    1.264E+02    3.5429123E+05   -4.6989712E+02   -1.4321930E+04    3.3071089E+05    4.6989651E+02    3.5429123E+05
   -3.73   900.000    1.252E+02    3.5585652E+05   -3.1788870E+02   -1.5200325E+04    3.3363278E+05    3.1788806E+02    3.5585652E+05
   -3.72   900.000    1.240E+02    3.5753751E+05   -1.4346025E+02   -1.6112339E+04    3.3662193E+05    1.4345958E+02    3.5753751E+05
   -3.71   900.000    1.228E+02    3.5933410E+05    5.3262462E+01   -1.7047321E+04    3.3966770E+05   -5.3263178E+01    3.5933410E+05
   -3.70   900.000    1.216E+02    3.6124335E+05    2.7150914E+02   -1.7993871E+04    3.4275830E+05   -2.7150990E+02    3.6124335E+05
   -3.69   900.000    1.204E+02    3.6326025E+05    5.0987429E+02   -1.8940110E+04    3.4588179E+05   -5.0987511E+02    3.6326025E+05
   -3.68   900.000    1.192E+02    3.6537850E+05    7.6633292E+02   -1.9874007E+04    3.4902695E+05   -7.6633380E+02    3.6537850E+05
   -3.67   900.000    1.181E+02    3.6759096E+05    1.0382615E+03   -2.0783785E+04    3.5218374E+05   -1.0382625E+03    3.6759096E+05
   -3.66   900.000    1.170E+02    3.6988992E+05    1.3224657E+03   -2.1658368E+04    3.5534353E+05   -1.3224668E+03    3.6988992E+05
   -3.65   900.000    1.158E+02    3.7226721E+05    1.6152179E+03   -2.2487855E+04    3.5849901E+05   -1.6152190E+03    3.7226722E+05
   -3.64   900.000    1.147E+02    3.7471414E+05    1.9123089E+03   -2.3263971E+04    3.6164381E+05   -1.9123101E+03    3.7471414E+05
   -3.63   900.000    1.135E+02    3.7722135E+05    2.2091196E+03   -2.3980453E+04    3.6477216E+05   -2.2091208E+03    3.7722135E+05
   -3.62   900.000    1.124E+02    3.7977875E+05    2.5007147E+03   -2.4633324E+04    3.6787843E+05   -2.5007160E+03    3.7977875E+05
   -3.61   900.000    1.113E+02    3.8237553E+05    2.7819627E+03   -2.5221026E+04    3.7095688E+05   -2.7819641E+03    3.8237554E+05
   -3.60   900.000    1.101E+02    3.8500029E+05    3.0476802E+03   -2.5744384E+04    3.7400166E+05   -3.0476816E+03    3.8500029E+05
   -3.59   900.000    1.090E+02    3.8764137E+05    3.2927982E+03   -2.6206413E+04    3.7700696E+05   -3.2927997E+03    3.8764137E+05
   -3.58   900.000    1.079E+02    3.9028734E+05    3.5125430E+03   -2.6611989E+04    3.7996749E+05   -3.5125446E+03    3.9028734E+05
   -3.57   900.000    1.067E+02    3.9292755E+05    3.7026214E+03   -2.6967411E+04    3.8287900E+05   -3.7026230E+03    3.9292756E+05
   -3.56   900.000    1.056E+02    3.9555278E+05    3.8593983E+03   -2.7279916E+04    3.8573888E+05   -3.8594000E+03    3.9555278E+05
   -3.55   900.000    1.044E+02    3.9815571E+05    3.9800521E+03   -2.7557179E+04    3.8854656E+05   -3.9800538E+03    3.9815571E+05
   -3.54   900.000    1.033E+02    4.0073130E+05    4.0626930E+03   -2.7806858E+04    3.9130379E+05   -4.0626948E+03    4.0073130E+05
   -3.53   900.000    1.021E+02    4.0327694E+05    4.1064347E+03   -2.8036203E+04    3.9401456E+05   -4.1064366E+03    4.0327694E+05
   -3.52   900.000    1.010E+02    4.0579226E+05    4.1114097E+03   -2.8251754E+04    3.9668470E+05   -4.1114116E+03    4.0579227E+05
   -3.51   900.000    9.978E+01    4.0827876E+05    4.0787264E+03   -2.8459120E+04    3.9932129E+05   -4.0787283E+03    4.0827876E+05
   -3.50   900.000    9.861E+01    4.1073912E+05    4.0103736E+03   -2.8662835E+04    4.0193179E+05   -4.0103756E+03    4.1073912E+05
   -3.49   900.000    9.742E+01    4.1317650E+05    3.9090803E+03   -2.8866264E+04    4.0452318E+05   -3.9090824E+03    4.1317650E+05
   -3.48   900.000    9.622E+01    4.1559371E+05    3.7781460E+03   -2.9071542E+04    4.0710118E+05   -3.7781481E+03    4.1559371E+05
   -3.47   900.000    9.502E+01    4.1799255E+05    3.6212571E+03   -2.9279523E+04    4.0966955E+05   -3.6212593E+03    4.1799255E+05
   -3.46   900.000    9.380E+01    4.2037329E+05    3.4423070E+03   -2.9489732E+04    4.1222983E+05   -3.4423093E+03    4.2037329E+05
   -3.45   900.000    9.257E+01    4.2273449E+05    3.2452325E+03   -2.9700321E+04    4.1478119E+05   -3.2452348E+03    4.2273449E+05
   -3.44   900.000    9.133E+01    4.2507303E+05    3.0338782E+03   -2.9908036E+04    4.1732079E+05   -3.0338806E+03    4.2507304E+05
   -3.43   900.000    9.007E+01    4.2738453E+05    2.8118958E+03   -3.0108215E+04    4.1984428E+05   -2.8118983E+03    4.2738453E+05
   -3.42   900.000    8.880E+01    4.2966386E+05    2.5826799E+03   -3.0294836E+04    4.2234657E+05   -2.5826825E+03    4.2966386E+05
   -3.41   900.000    8.751E+01    4.3190598E+05    2.3493402E+03   -3.0460643E+04    4.2482266E+05   -2.3493428E+03    4.3190598E+05
   -3.40   900.000    8.620E+01    4.3410671E+05    2.1147074E+03   -3.0597342E+04    4.2726849E+05   -2.1147101E+03    4.3410670E+05
   -3.39   900.000    8.487E+01    4.3626345E+05    1.8813662E+03   -3.0695896E+04    4.2968165E+05   -1.8813690E+03    4.3626345E+05
   -3.38   900.000    8.353E+01    4.3837582E+05    1.6517095E+03   -3.0746875E+04    4.3206181E+05   -1.6517123E+03    4.3837582E+05
   -3.37   900.000    8.215E+01    4.4044599E+05    1.4280053E+03   -3.0740879E+04    4.3441095E+05   -1.4280081E+03    4.4044599E+05
   -3.36   900.000    8.076E+01    4.4247869E+05    1.2124666E+03   -3.0668972E+04    4.3673309E+05   -1.2124694E+03    4.4247869E+05
   -3.35   900.000    7.934E+01    4.4448095E+05    1.0073153E+03   -3.0523119E+04    4.3903373E+05   -1.0073182E+03    4.4448095E+05
   -3.34   900.000    7.790E+01    4.4646143E+05    8.1482849E+02   -3.0296582E+04    4.4131896E+05   -8.1483139E+02    4.4646142E+05
   -3.33   900.000    7.643E+01    4.4842948E+05    6.3736031E+02   -2.9984281E+04    4.4359421E+05   -6.3736320E+02    4.4842948E+05
   -3.32   900.000    7.494E+01    4.5039401E+05    4.7733194E+02   -2.9583074E+04    4.4586294E+05   -4.7733481E+02    4.5039401E+05
   -3.31   900.000    7.342E+01    4.5236219E+05    3.3718886E+02   -2.9091993E+04    4.4812527E+05   -3.3719168E+02    4.5236219E+05
   -3.30   900.000    7.187E+01    4.5433817E+05    2.1932742E+02   -2.8512405E+04    4.5037681E+05   -2.1933017E+02    4.5433817E+05
   -3.29   900.000    7.030E+01    4.5632195E+05    1.2599841E+02   -2.7848142E+04    4.5260768E+05   -1.2600108E+02    4.5632195E+05
   -3.28   900.000    6.870E+01    4.5830847E+05    5.9199006E+01   -2.7105562E+04    4.5480207E+05   -5.9201561E+01    4.5830847E+05
   -3.27   900.000    6.708E+01    4.6028708E+05    2.0566410E+01   -2.6293580E+04    4.5693822E+05   -2.0568836E+01    4.6028708E+05
   -3.26   900.000    6.544E+01    4.6224136E+05    1.1286719E+01   -2.5423624E+04    4.5898896E+05   -1.1288996E+01    4.6224136E+05
   -3.25   900.000    6.378E+01    4.6414937E+05    3.2029912E+01   -2.4509515E+04    4.6092260E+05   -3.2032022E+01    4.6414936E+05
   -3.24   900.000    6.210E+01    4.6598421E+05    8.2917624E+01   -2.3567255E+04    4.6270436E+05   -8.2919553E+01    4.6598421E+05
   -3.23   900.000    6.040E+01    4.6771496E+05    1.6352493E+02   -2.2614687E+04    4.6429786E+05   -1.6352667E+02    4.6771496E+05
   -3.22   900.000    5.869E+01    4.6930770E+05    2.7291203E+02   -2.1671046E+04    4.6566670E+05   -2.7291356E+02    4.6930770E+05
   -3.21   900.000    5.697E+01    4.7072665E+05    4.0967754E+02   -2.0756374E+04    4.6677602E+05   -4.0967888E+02    4.7072665E+05
   -3.20   900.000    5.524E+01    4.7193526E+05    5.7202326E+02   -1.9890851E+04    4.6759376E+05   -5.7202440E+02    4.7193526E+05
   -3.19   900.000    5.352E+01    4.7289721E+05    7.5782028E+02   -1.9094039E+04    4.6809161E+05   -7.5782122E+02    4.7289721E+05
   -3.18   900.000    5.179E+01    4.7357724E+05    9.6466937E+02   -1.8384102E+04    4.6824570E+05   -9.6467014E+02    4.7357724E+05
   -3.17   900.000    5.007E+01    4.7394175E+05    1.1899521E+03   -1.7777042E+04    4.6803688E+05   -1.1899527E+03    4.7394175E+05
   -3.16   900.000    4.837E+01    4.7395928E+05    1.4308735E+03   -1.7285987E+04    4.6745081E+05   -1.4308740E+03    4.7395928E+05
   -3.15   900.000    4.667E+01    4.7360081E+05    1.6845004E+03   -1.6920588E+04    4.6647780E+05   -1.6845008E+03    4.7360081E+05
   -3.14   900.000    4.500E+01    4.7284000E+05    1.9478009E+03   -1.6686558E+04    4.6511252E+05   -1.9478012E+03    4.7284000E+05
   -3.13   900.000    4.335E+01    4.7165333E+05    2.2176907E+03   -1.6585380E+04    4.6335364E+05   -2.2176909E+03    4.7165333E+05
   -3.12   900.000    4.173E+01    4.7002030E+05    2.4910876E+03   -1.6614204E+04    4.6120350E+05   -2.4910879E+03    4.7002029E+05
   -3.11   900.000    4.014E+01    4.6792357E+05    2.7649759E+03   -1.6765960E+04    4.5866768E+05   -2.7649761E+03    4.6792357E+05
   -3.10   900.000    3.858E+01    4.6534925E+05    3.0364727E+03   -1.7029658E+04    4.5575462E+05   -3.0364729E+03    4.6534924E+05
   -3.09   900.000    3.707E+01    4.6228706E+05    3.3028929E+03   -1.7390898E+04    4.5247524E+05   -3.3028933E+03    4.6228706E+05
   -3.08   900.000    3.559E+01    4.5873076E+05    3.5618016E+03   -1.7832532E+04    4.4884255E+05   -3.5618021E+03    4.5873075E+05
   -3.07   900.000    3.416E+01    4.5467838E+05    3.8110479E+03   -1.8335470E+04    4.4487124E+05   -3.8110485E+03    4.5467838E+05
   -3.06   900.000    3.277E+01    4.5013268E+05    4.0487763E+03   -1.8879562E+04    4.4057733E+05   -4.0487769E+03    4.5013268E+05
   -3.05   900.000    3.143E+01    4.4510152E+05    4.2734148E+03   -1.9444517E+04    4.3597785E+05   -4.2734156E+03    4.4510152E+05
   -3.04   900.000    3.014E+01    4.3959829E+05    4.4836446E+03   -2.0010786E+04    4.3109066E+05   -4.4836456E+03    4.3959829E+05
   -3.03   900.000    2.889E+01    4.3364233E+05    4.6783587E+03   -2.0560364E+04    4.2593439E+05   -4.6783599E+03    4.3364232E+05
   -3.02   900.000    2.770E+01    4.2725931E+05    4.8566191E+03   -2.1077459E+04    4.2052853E+05   -4.8566204E+03    4.2725931E+05
   -3.01   900.000    2.655E+01    4.2048158E+05    5.0176235E+03   -2.1548991E+04    4.1489376E+05   -5.0176249E+03    4.2048158E+05
   -3.00   900.000    2.545E+01    4.1334834E+05    5.1606888E+03   -2.1964910E+04    4.0905228E+05   -5.1606904E+03    4.1334833E+05
   -2.99   900.000    2.440E+01    4.0590561E+05    5.2852554E+03   -2.2318323E+04    4.0302840E+05   -5.2852571E+03    4.0590561E+05
   -2.98   900.000    2.340E+01    3.9820601E+05    5.3909126E+03   -2.2605456E+04    3.9684903E+05   -5.3909144E+03    3.9820601E+05
   -2.97   900.000    2.244E+01    3.9030813E+05    5.4774402E+03   -2.2825479E+04    3.9054408E+05   -5.4774421E+03    3.9030813E+05
   -2.96   900.000    2.152E+01    3.8227563E+05    5.5448575E+03   -2.2980215E+04    3.8414680E+05   -5.5448596E+03    3.8227563E+05
   -2.95   900.000    2.065E+01    3.7417594E+05    5.5934678E+03   -2.3073789E+04    3.7769376E+05   -5.5934699E+03    3.7417594E+05
   -2.94   900.000    1.982E+01    3.6607863E+05    5.6238868E+03   -2.3112231E+04    3.7122457E+05   -5.6238890E+03    3.6607862E+05
   -2.93   900.000    1.903E+01    3.5805350E+05    5.6370448E+03   -2.3103064E+04    3.6478125E+05   -5.6370470E+03    3.5805349E+05
   -2.92   900.000    1.828E+01    3.5016851E+05    5.6341558E+03   -2.3054891E+04    3.5840728E+05   -5.6341579E+03    3.5016851E+05
   -2.91   900.000    1.757E+01    3.4248766E+05    5.6166507E+03   -2.2976999E+04    3.5214641E+05   -5.6166529E+03    3.4248765E+05
   -2.90   900.000    1.689E+01    3.3506888E+05    5.5860803E+03   -2.2878971E+04    3.4604122E+05   -5.5860825E+03    3.3506887E+05
   -2.89   900.000    1.624E+01    3.2796224E+05    5.5439940E+03   -2.2770317E+04    3.4013169E+05   -5.5439961E+03    3.2796223E+05
   -2.88   900.000    1.562E+01    3.2120842E+05    5.4918084E+03   -2.2660111E+04    3.3445370E+05   -5.4918105E+03    3.2120842E+05
   -2.87   900.000    1.504E+01    3.1483770E+05    5.4306799E+03   -2.2556639E+04    3.2903770E+05   -5.4306820E+03    3.1483770E+05
   -2.86   900.000    1.448E+01    3.0886933E+05    5.3613952E+03   -2.2467046E+04    3.2390765E+05   -5.3613972E+03    3.0886933E+05
   -2.85   900.000    1.395E+01    3.0331152E+05    5.2842921E+03   -2.2396985E+04    3.1908003E+05   -5.2842940E+03    3.0331151E+05
   -2.84   900.000    1.345E+01    2.9816177E+05    5.1992203E+03   -2.2350275E+04    3.1456333E+05   -5.1992222E+03    2.9816177E+05
   -2.83   900.000    1.297E+01    2.9340768E+05    5.1055459E+03   -2.2328568E+04    3.1035760E+05   -5.1055478E+03    2.9340768E+05
   -2.82   900.000    1.251E+01    2.8902788E+05    5.0021990E+03   -2.2331052E+04    3.0645429E+05   -5.0022008E+03    2.8902788E+05
   -2.81   900.000    1.208E+01    2.8499316E+05    4.8877607E+03   -2.2354218E+04    3.0283631E+05   -4.8877625E+03    2.8499316E+05
   -2.80   900.000    1.166E+01    2.8126758E+05    4.7605807E+03   -2.2391707E+04    2.9947811E+05   -4.7605825E+03    2.8126757E+05
   -2.79   900.000    1.127E+01    2.7780940E+05    4.6189152E+03   -2.2434299E+04    2.9634599E+05   -4.6189169E+03    2.7780940E+05
   -2.78   900.000    1.089E+01    2.7457195E+05    4.4610737E+03   -2.2470050E+04    2.9339844E+05   -4.4610755E+03    2.7457195E+05
   -2.77   900.000    1.052E+01    2.7150419E+05    4.2855654E+03   -2.2484626E+04    2.9058669E+05   -4.2855671E+03    2.7150419E+05
   -2.76   900.000    1.017E+01    2.6855122E+05    4.0912343E+03   -2.2461833E+04    2.8785541E+05   -4.0912361E+03    2.6855122E+05
   -2.75   900.000    9.840E+00    2.6565469E+05    3.8773781E+03   -2.2384345E+04    2.8514364E+05   -3.8773798E+03    2.6565469E+05
   -2.74   900.000    9.520E+00    2.6275321E+05    3.6438436E+03   -2.2234598E+04    2.8238600E+05   -3.6438454E+03    2.6275321E+05
   -2.73   900.000    9.212E+00    2.5978301E+05    3.3910986E+03   -2.1995806E+04    2.7951422E+05   -3.3911004E+03    2.5978301E+05
   -2.72   900.000    8.915E+00    2.5667879E+05    3.1202751E+03   -2.1653022E+04    2.7645897E+05   -3.1202769E+03    2.5667879E+05
   -2.71   900.000    8.630E+00    2.5337497E+05    2.8331847E+03   -2.1194170E+04    2.7315203E+05   -2.8331865E+03    2.5337497E+05
   -2.70   900.000    8.354E+00    2.4980721E+05    2.5323046E+03   -2.0610952E+04    2.6952855E+05   -2.5323063E+03    2.4980721E+05
   -2.69   900.000    8.089E+00    2.4591441E+05    2.2207322E+03   -1.9899552E+04    2.6552965E+05   -2.2207338E+03    2.4591442E+05
   -2.68   900.000    7.832E+00    2.4164083E+05    1.9021100E+03   -1.9061069E+04    2.6110481E+05   -1.9021116E+03    2.4164083E+05
   -2.67   900.000    7.585E+00    2.3693838E+05    1.5805208E+03   -1.8101637E+04    2.5621429E+05   -1.5805223E+03    2.3693838E+05
   -2.66   900.000    7.346E+00    2.3176895E+05    1.2603557E+03   -1.7032211E+04    2.5083118E+05   -1.2603572E+03    2.3176895E+05
   -2.65   900.000    7.115E+00    2.2610641E+05    9.4616198E+02   -1.5868054E+04    2.4494312E+05   -9.4616331E+02    2.2610641E+05
   -2.64   900.000    6.891E+00    2.1993835E+05    6.4247558E+02   -1.4627952E+04    2.3855341E+05   -6.4247679E+02    2.1993835E+05
   -2.63   900.000    6.676E+00    2.1326724E+05    3.5364948E+02   -1.3333239E+04    2.3168164E+05   -3.5365055E+02    2.1326725E+05
   -2.62   900.000    6.468E+00    2.0611104E+05    8.3686253E+01   -1.2006717E+04    2.2436359E+05   -8.3687176E+01    2.0611104E+05
   -2.61   900.000    6.267E+00    1.9850305E+05   -1.6391445E+02   -1.0671552E+04    2.1665051E+05    1.6391367E+02    1.9850305E+05
   -2.60   900.000    6.073E+00    1.9049118E+05   -3.8628442E+02   -9.3502243E+03    2.0860776E+05    3.8628380E+02    1.9049118E+05
   -2.59   900.000    5.886E+00    1.8213649E+05   -5.8128376E+02   -8.0636105E+03    2.0031280E+05    5.8128330E+02    1.8213649E+05
   -2.58   900.000    5.706E+00    1.7351123E+05   -7.4756028E+02   -6.8302267E+03    1.9185282E+05    7.4755996E+02    1.7351124E+05
   -2.57   900.000    5.532E+00    1.6469638E+05   -8.8456856E+02   -5.6656766E+03    1.8332179E+05    8.8456839E+02    1.6469638E+05
   -2.56   900.000    5.364E+00    1.5577890E+05   -9.9254855E+02   -4.5823038E+03    1.7481733E+05    9.9254852E+02    1.5577890E+05
   -2.55   900.000    5.202E+00    1.4684883E+05   -1.0724665E+03   -3.5890469E+03    1.6643742E+05    1.0724666E+03    1.4684883E+05
   -2.54   900.000    5.046E+00    1.3799642E+05   -1.1259237E+03   -2.6914784E+03    1.5827710E+05    1.1259239E+03    1.3799642E+05
   -2.53   900.000    4.895E+00    1.2930936E+05   -1.1550415E+03   -1.8920020E+03    1.5042535E+05    1.1550418E+03    1.2930936E+05
   -2.52   900.000    4.748E+00    1.2087039E+05   -1.1623308E+03   -1.1901767E+03    1.4296220E+05    1.1623312E+03    1.2087039E+05
   -2.51   900.000    4.606E+00    1.1275523E+05   -1.1505565E+03   -5.8313370E+02    1.3595635E+05    1.1505571E+03    1.1275523E+05
   -2.50   900.000    4.467E+00    1.0503103E+05   -1.1226065E+03   -6.6047899E+01    1.2946318E+05    1.1226072E+03    1.0503104E+05
   -2.49   900.000    4.331E+00    9.7755335E+04   -1.0813712E+03    3.6736762E+02    1.2352343E+05    1.0813720E+03    9.7755336E+04
   -2.48   900.000    4.197E+00    9.0975445E+04   -1.0296421E+03    7.2437853E+02    1.1816245E+05    1.0296429E+03    9.0975446E+04
   -2.47   900.000    4.066E+00    8.4728370E+04   -9.7003058E+02    1.0127830E+03    1.1339014E+05    9.7003146E+02    8.4728371E+04
   -2.46   900.000    3.936E+00    7.9041096E+04   -9.0490962E+02    1.2405235E+03    1.0920143E+05    9.0491055E+02    7.9041097E+04
   -2.45   900.000    3.806E+00    7.3931207E+04   -8.3637739E+02    1.4153688E+03    1.0557747E+05    8.3637837E+02    7.3931208E+04
   -2.44   900.000    3.677E+00    6.9407750E+04   -7.6624043E+02    1.5446740E+03    1.0248731E+05    7.6624145E+02    6.9407751E+04
   -2.43   900.000    3.547E+00    6.5472265E+04   -6.9601323E+02    1.6352152E+03    9.9890135E+04    6.9601429E+02    6.5472267E+04
   -2.42   900.000    3.417E+00    6.2119915E+04   -6.2693079E+02    1.6930941E+03    9.7737843E+04    6.2693188E+02    6.2119916E+04
   -2.41   900.000    3.286E+00    5.9340656E+04   -5.5997016E+02    1.7237001E+03    9.5977943E+04    5.5997127E+02    5.9340657E+04
   -2.40   900.000    3.153E+00    5.7120414E+04   -4.9587772E+02    1.7317176E+03    9.4556613E+04    4.9587883E+02    5.7120416E+04
   -2.39   900.000    3.019E+00    5.5442240E+04   -4.3519926E+02    1.7211643E+03    9.3421756E+04    4.3520037E+02    5.5442242E+04
   -2.38   900.000    2.883E+00    5.4287430E+04   -3.7831064E+02    1.6954463E+03    9.2525907E+04    3.7831173E+02    5.4287432E+04
   -2.37   900.000    2.746E+00    5.3636615E+04   -3.2544720E+02    1.6574214E+03    9.1828834E+04    3.2544827E+02    5.3636618E+04
   -2.36   900.000    2.608E+00    5.3470824E+04   -2.7673090E+02    1.6094613E+03    9.1299697E+04    2.7673193E+02    5.3470827E+04
   -2.35   900.000    2.468E+00    5.3772515E+04   -2.3219440E+02    1.5535085E+03    9.0918664E+04    2.3219539E+02    5.3772518E+04
   -2.34   900.000    2.327E+00    5.4526579E+04   -1.9180183E+02    1.4911265E+03    9.0677915E+04    1.9180276E+02    5.4526583E+04
   -2.33   900.000    2.185E+00    5.5721303E+04   -1.5546597E+02    1.4235442E+03    9.0582016E+04    1.5546683E+02    5.5721306E+04
   -2.32   900.000    2.043E+00    5.7349256E+04   -1.2306216E+02    1.3516965E+03    9.0647694E+04    1.2306293E+02    5.7349260E+04
   -2.31   900.000    1.901E+00    5.9408083E+04   -9.4439019E+01    1.2762637E+03    9.0903081E+04    9.4439691E+01    5.9408087E+04
   -2.30   900.000    1.760E+00    6.1901135E+04   -6.9426413E+01    1.1977119E+03    9.1386520E+04    6.9426975E+01    6.1901140E+04
   -2.29   900.000    1.619E+00    6.4837919E+04   -4.7841111E+01    1.1163360E+03    9.2145044E+04    4.7841550E+01    6.4837925E+04
   -2.28   900.000    1.480E+00    6.8234293E+04   -2.9490582E+01    1.0323045E+03    9.3232649E+04    2.9490887E+01    6.8234300E+04
   -2.27   900.000    1.343E+00    7.2112402E+04   -1.4175511E+01    9.4570459E+02    9.4708462E+04    1.4175671E+01    7.2112409E+04
   -2.26   900.000    1.208E+00    7.6500314E+04   -1.6914837E+00    8.5658670E+02    9.6634893E+04    1.6914895E+00    7.6500321E+04
   -2.25   900.000    1.075E+00    8.1431374E+04    8.1697161E+00    7.6500374E+02    9.9075854E+04   -8.1698742E+00    8.1431383E+04
   -2.24   900.000    9.445E-01    8.6943304E+04    1.5618890E+01    6.7104414E+02    1.0209508E+05   -1.5619220E+01    8.6943313E+04
   -2.23   900.000    8.170E-01    9.3077077E+04    2.0868094E+01    5.7485559E+02    1.0575462E+05   -2.0868604E+01    9.3077087E+04
   -2.22   900.000    6.925E-01    9.9875650E+04    2.4129146E+01    4.7665868E+02    1.1011345E+05   -2.4129842E+01    9.9875662E+04
   -2.21   900.000    5.708E-01    1.0738261E+05    2.5612014E+01    3.7674956E+02    1.1522635E+05   -2.5612902E+01    1.0738262E+05
   -2.20   900.000    4.520E-01    1.1564081E+05    2.5523249E+01    2.7549221E+02    1.2114290E+05   -2.5524335E+01    1.1564082E+05
   -2.19   900.000    3.358E-01    1.2469107E+05    2.4064617E+01    1.7330125E+02    1.2790670E+05   -2.4065907E+01    1.2469108E+05
   -2.18   900.000    2.222E-01    1.3457098E+05    2.1432108E+01    7.0616900E+01    1.3555480E+05   -2.1433606E+01    1.3457100E+05
   -2.17   900.000    1.108E-01    1.4531391E+05    1.7815452E+01   -3.2125661E+01    1.4411730E+05   -1.7817167E+01    1.4531393E+05
   -2.16   900.000    1.313E-03    1.5694813E+05    1.3398201E+01   -1.3453021E+02    1.5361712E+05   -1.3400139E+01    1.5694815E+05
   -2.15   900.000   -1.065E-01    1.6949618E+05    8.3583377E+00   -2.3627398E+02    1.6406998E+05   -8.3605103E+00    1.6949620E+05
   -2.14   900.000   -2.130E-01    1.8297440E+05    2.8693446E+00   -3.3714047E+02    1.7548451E+05   -2.8717627E+00    1.8297442E+05
   -2.13   900.000   -3.187E-01    1.9739265E+05   -2.8984588E+00   -4.3704830E+02    1.8786249E+05    2.8957811E+00    1.9739267E+05
   -2.12   900.000   -4.237E-01    2.1275414E+05   -8.7765008E+00   -5.3607506E+02    2.0119922E+05    8.7735471E+00    2.1275416E+05
   -2.11   900.000   -5.286E-01    2.2905540E+05   -1.4596716E+01   -6.3447516E+02    2.1548396E+05    1.4593467E+01    2.2905543E+05
   -2.10   900.000   -6.336E-01    2.4628630E+05   -2.0190729E+01   -7.3269186E+02    2.3070037E+05    2.0187165E+01    2.4628633E+05
   -2.09   900.000   -7.392E-01    2.6443016E+05   -2.5389725E+01   -8.3136345E+02    2.4682700E+05    2.5385823E+01    2.6443019E+05
   -2.08   900.000   -8.456E-01    2.8346388E+05   -3.0025218E+01   -9.3132369E+02    2.6383774E+05    3.0020955E+01    2.8346391E+05
   -2.07   900.000   -9.531E-01    3.0335808E+05   -3.3930906E+01   -1.0335958E+03    2.8170215E+05    3.3926259E+01    3.0335811E+05
   -2.06   900.000   -1.062E+00    3.2407735E+05   -3.6945650E+01   -1.1393788E+03    3.0038578E+05    3.6940598E+01    3.2407739E+05
   -2.05   900.000   -1.173E+00    3.4558046E+05   -3.8917495E+01   -1.2500238E+03    3.1985039E+05    3.8912018E+01    3.4558050E+05
   -2.04   900.000   -1.285E+00    3.6782070E+05   -3.9708354E+01   -1.3669983E+03    3.4005405E+05    3.9702437E+01    3.6782074E+05
   -2.03   900.000   -1.400E+00    3.9074626E+05   -3.9198737E+01   -1.4918369E+03    3.6095140E+05    3.9192370E+01    3.9074631E+05
   -2.02   900.000   -1.517E+00    4.1430074E+05   -3.7291573E+01   -1.6260773E+03    3.8249378E+05    3.7284751E+01    4.1430078E+05
   -2.01   900.000   -1.637E+00    4.3842369E+05   -3.3913914E+01   -1.7711830E+03    4.0462964E+05    3.3906642E+01    4.3842373E+05
   -2.00   900.000   -1.759E+00    4.6305135E+05   -2.9015284E+01   -1.9284570E+03    4.2730503E+05    2.9007573E+01    4.6305140E+05
   -1.99   900.000   -1.884E+00    4.8811731E+05   -2.2561551E+01   -2.0989507E+03    4.5046431E+05    2.2553420E+01    4.8811736E+05
   -1.98   900.000   -2.012E+00    5.1355329E+05   -1.4523787E+01   -2.2833778E+03    4.7405098E+05    1.4515266E+01    5.1355334E+05
   -1.97   900.000   -2.143E+00    5.3928984E+05   -4.8624293E+00   -2.4820397E+03    4.9800864E+05    4.8535535E+00    5.3928989E+05
   -1.96   900.000   -2.276E+00    5.6525697E+05    6.4918333E+00   -2.6947717E+03    5.2228182E+05   -6.5010193E+00    5.6525702E+05
   -1.95   900.000   -2.413E+00    5.9138474E+05    1.9657778E+01   -2.9209166E+03    5.4681670E+05   -1.9667223E+01    5.9138479E+05
   -1.94   900.000   -2.553E+00    6.1760374E+05    3.4820348E+01   -3.1593286E+03    5.7156145E+05   -3.4829997E+01    6.1760379E+05
   -1.93   900.000   -2.696E+00    6.4384553E+05    5.2240173E+01   -3.4084079E+03    5.9646626E+05   -5.2249965E+01    6.4384558E+05
   -1.92   900.000   -2.843E+00    6.7004310E+05    7.2251948E+01   -3.6661609E+03    6.2148287E+05   -7.2261822E+01    6.7004316E+05
   -1.91   900.000   -2.992E+00    6.9613147E+05    9.5248814E+01   -3.9302793E+03    6.4656376E+05   -9.5258709E+01    6.9613153E+05
   -1.90   900.000   -3.145E+00    7.2204844E+05    1.2165173E+02   -4.1982291E+03    6.7166119E+05   -1.2166158E+02    7.2204850E+05
   -1.89   900.000   -3.301E+00    7.4773558E+05    1.5186533E+02   -4.4673413E+03    6.9672608E+05   -1.5187508E+02    7.4773565E+05
   -1.88   900.000   -3.460E+00    7.7313947E+05    1.8622438E+02   -4.7348988E+03    7.2170718E+05   -1.8623398E+02    7.7313953E+05
   -1.87   900.000   -3.622E+00    7.9821295E+05    2.2493747E+02   -4.9982179E+03    7.4655053E+05   -2.2494687E+02    7.9821302E+05
   -1.86   900.000   -3.787E+00    8.2291651E+05    2.6803574E+02   -5.2547243E+03    7.7119942E+05   -2.6804489E+02    8.2291657E+05
   -1.85   900.000   -3.955E+00    8.4721922E+05    3.1533519E+02   -5.5020304E+03    7.9559496E+05   -3.1534405E+02    8.4721929E+05
   -1.84   900.000   -4.127E+00    8.7109939E+05    3.6641943E+02   -5.7380148E+03    8.1967705E+05   -3.6642796E+02    8.7109945E+05
   -1.83   900.000   -4.301E+00    8.9454433E+05    4.2064736E+02   -5.9609091E+03    8.4338580E+05   -4.2065554E+02    8.9454439E+05
   -1.82   900.000   -4.478E+00    9.1754942E+05    4.7718673E+02   -6.1693905E+03    8.6666305E+05   -4.7719454E+02    9.1754949E+05
   -1.81   900.000   -4.659E+00    9.4011633E+05    5.3507032E+02   -6.3626752E+03    8.8945391E+05   -5.3507772E+02    9.4011639E+05
   -1.80   900.000   -4.842E+00    9.6225041E+05    5.9326807E+02   -6.5406064E+03    9.1170798E+05   -5.9327506E+02    9.6225048E+05
   -1.79   900.000   -5.028E+00    9.8395786E+05    6.5076627E+02   -6.7037272E+03    9.3338021E+05   -6.5077284E+02    9.8395792E+05
   -1.78   900.000   -5.217E+00    1.0052426E+06    7.0664382E+02   -6.8533292E+03    9.5443123E+05   -7.0664994E+02    1.0052427E+06
   -1.77   900.000   -5.408E+00    1.0261036E+06    7.6013686E+02   -6.9914721E+03    9.7482721E+05   -7.6014253E+02    1.0261037E+06
   -1.76   900.000   -5.602E+00    1.0465333E+06    8.1068579E+02   -7.1209698E+03    9.9453936E+05   -8.1069101E+02    1.0465333E+06
   -1.75   900.000   -5.799E+00    1.0665161E+06    8.5796203E+02   -7.2453427E+03    1.0135432E+06   -8.5796680E+02    1.0665162E+06
   -1.74   900.000   -5.999E+00    1.0860298E+06    9.0187577E+02   -7.3687396E+03    1.0318179E+06   -9.0188007E+02    1.0860298E+06
   -1.73   900.000   -6.201E+00    1.1050465E+06    9.4256853E+02   -7.4958300E+03    1.0493456E+06   -9.4257237E+02    1.1050466E+06
   -1.72   900.000   -6.406E+00    1.1235363E+06    9.8039597E+02   -7.6316730E+03    1.0661113E+06   -9.8039935E+02    1.1235364E+06
   -1.71   900.000   -6.614E+00    1.1414701E+06    1.0159056E+03   -7.7815626E+03    1.0821030E+06   -1.0159085E+03    1.1414702E+06
   -1.70   900.000   -6.824E+00    1.1588241E+06    1.0498123E+03   -7.9508550E+03    1.0973127E+06   -1.0498148E+03    1.1588242E+06
   -1.69   900.000   -7.037E+00    1.1755830E+06    1.0829722E+03   -8.1447807E+03    1.1117371E+06   -1.0829741E+03    1.1755831E+06
   -1.68   900.000   -7.252E+00    1.1917429E+06    1.1163523E+03   -8.3682482E+03    1.1253790E+06   -1.1163538E+03    1.1917430E+06
   -1.67   900.000   -7.471E+00    1.2073132E+06    1.1509950E+03   -8.6256468E+03    1.1382492E+06   -1.1509960E+03    1.2073133E+06
   -1.66   900.000   -7.691E+00    1.2223167E+06    1.1879726E+03   -8.9206613E+03    1.1503671E+06   -1.1879730E+03    1.2223167E+06
   -1.65   900.000   -7.915E+00    1.2367888E+06    1.2283346E+03   -9.2561093E+03    1.1617624E+06   -1.2283343E+03    1.2367888E+06
   -1.64   900.000   -8.141E+00    1.2507758E+06    1.2730487E+03   -9.6338129E+03    1.1724759E+06   -1.2730479E+03    1.2507759E+06
   -1.63   900.000   -8.370E+00    1.2643323E+06    1.3229418E+03   -1.0054516E+04    1.1825594E+06   -1.3229404E+03    1.2643324E+06
   -1.62   900.000   -8.602E+00    1.2775183E+06    1.3786464E+03   -1.0517853E+04    1.1920766E+06   -1.3786442E+03    1.2775184E+06
   -1.61   900.000   -8.836E+00    1.2903965E+06    1.4405585E+03   -1.1022365E+04    1.2011025E+06   -1.4405556E+03    1.2903966E+06
   -1.60   900.000   -9.074E+00    1.3030303E+06    1.5088129E+03   -1.1565577E+04    1.2097228E+06   -1.5088092E+03    1.3030304E+06
   -1.59   900.000   -9.314E+00    1.3154823E+06    1.5832764E+03   -1.2144097E+04    1.2180336E+06   -1.5832720E+03    1.3154824E+06
   -1.58   900.000   -9.557E+00    1.3278132E+06    1.6635596E+03   -1.2753763E+04    1.2261403E+06   -1.6635544E+03    1.3278133E+06
   -1.57   900.000   -9.803E+00    1.3400816E+06    1.7490442E+03   -1.3389801E+04    1.2341558E+06   -1.7490382E+03    1.3400817E+06
   -1.56   900.000   -1.005E+01    1.3523441E+06    1.8389211E+03   -1.4046981E+04    1.2421994E+06   -1.8389143E+03    1.3523441E+06
   -1.55   900.000   -1.030E+01    1.3646551E+06    1.9322340E+03   -1.4719788E+04    1.2503939E+06   -1.9322264E+03    1.3646552E+06
   -1.54   900.000   -1.056E+01    1.3770675E+06    2.0279200E+03   -1.5402580E+04    1.2588634E+06   -2.0279116E+03    1.3770676E+06
   -1.53   900.000   -1.082E+01    1.3896324E+06    2.1248402E+03   -1.6089749E+04    1.2677296E+06   -2.1248310E+03    1.3896325E+06
   -1.52   900.000   -1.108E+01    1.4023991E+06    2.2217940E+03   -1.6775891E+04    1.2771087E+06   -2.2217841E+03    1.4023992E+06
   -1.51   900.000   -1.134E+01    1.4154152E+06    2.3175111E+03   -1.7455989E+04    1.2871080E+06   -2.3175005E+03    1.4154152E+06
   -1.50   900.000   -1.161E+01    1.4287260E+06    2.4106216E+03   -1.8125608E+04    1.2978224E+06   -2.4106104E+03    1.4287261E+06
   -1.49   900.000   -1.188E+01    1.4423748E+06    2.4996078E+03   -1.8781102E+04    1.3093316E+06   -2.4995959E+03    1.4423749E+06
   -1.48   900.000   -1.215E+01    1.4564020E+06    2.5827478E+03   -1.9419812E+04    1.3216980E+06   -2.5827353E+03    1.4564021E+06
   -1.47   900.000   -1.243E+01    1.4708450E+06    2.6580648E+03   -2.0040232E+04    1.3349650E+06   -2.6580516E+03    1.4708451E+06
   -1.46   900.000   -1.270E+01    1.4857371E+06    2.7232986E+03   -2.0642114E+04    1.3491564E+06   -2.7232849E+03    1.4857371E+06
   -1.45   900.000   -1.299E+01    1.5011064E+06    2.7759128E+03   -2.1226490E+04    1.3642763E+06   -2.7758985E+03    1.5011064E+06
   -1.44   900.000   -1.327E+01    1.5169742E+06    2.8131477E+03   -2.1795584E+04    1.3803103E+06   -2.8131330E+03    1.5169742E+06
   -1.43   900.000   -1.356E+01    1.5333532E+06    2.8321215E+03   -2.2352617E+04    1.3972262E+06   -2.8321063E+03    1.5333533E+06
   -1.42   900.000   -1.385E+01    1.5502456E+06    2.8299732E+03   -2.2901511E+04    1.4149771E+06   -2.8299575E+03    1.5502457E+06
   -1.41   900.000   -1.415E+01    1.5676413E+06    2.8040366E+03   -2.3446519E+04    1.4335028E+06   -2.8040206E+03    1.5676414E+06
   -1.40   900.000   -1.444E+01    1.5855169E+06    2.7520279E+03   -2.3991834E+04    1.4527340E+06   -2.7520115E+03    1.5855170E+06
   -1.39   900.000   -1.474E+01    1.6038359E+06    2.6722284E+03   -2.4541204E+04    1.4725942E+06   -2.6722117E+03    1.6038359E+06
   -1.38   900.000   -1.505E+01    1.6225495E+06    2.5636465E+03   -2.5097628E+04    1.4930041E+06   -2.5636295E+03    1.6225495E+06
   -1.37   900.000   -1.535E+01    1.6415995E+06    2.4261430E+03   -2.5663147E+04    1.5138837E+06   -2.4261259E+03    1.6415995E+06
   -1.36   900.000   -1.566E+01    1.6609225E+06    2.2605087E+03   -2.6238782E+04    1.5351553E+06   -2.2604914E+03    1.6609225E+06
   -1.35   900.000   -1.597E+01    1.6804550E+06    2.0684834E+03   -2.6824608E+04    1.5567457E+06   -2.0684661E+03    1.6804551E+06
   -1.34   900.000   -1.629E+01    1.7001397E+06    1.8527124E+03   -2.7419958E+04    1.5785875E+06   -1.8526950E+03    1.7001397E+06
   -1.33   900.000   -1.661E+01    1.7199319E+06    1.6166340E+03   -2.8023724E+04    1.6006202E+06   -1.6166167E+03    1.7199319E+06
   -1.32   900.000   -1.693E+01    1.7398060E+06    1.3643012E+03   -2.8634710E+04    1.6227909E+06   -1.3642840E+03    1.7398061E+06
   -1.31   900.000   -1.726E+01    1.7597606E+06    1.1001426E+03   -2.9251979E+04    1.6450548E+06   -1.1001256E+03    1.7597606E+06
   -1.30   900.000   -1.758E+01    1.7798220E+06    8.2867526E+02   -2.9875154E+04    1.6673757E+06   -8.2865846E+02    1.7798221E+06
   -1.29   900.000   -1.791E+01    1.8000456E+06    5.5418994E+02   -3.0504629E+04    1.6897270E+06   -5.5417338E+02    1.8000456E+06
   -1.28   900.000   -1.825E+01    1.8205142E+06    2.8043550E+02   -3.1141658E+04    1.7120935E+06   -2.8041921E+02    1.8205142E+06
   -1.27   900.000   -1.858E+01    1.8413338E+06    1.0331781E+01   -3.1788335E+04    1.7344727E+06   -1.0315781E+01    1.8413338E+06
   -1.26   900.000   -1.892E+01    1.8626264E+06   -2.5425741E+02   -3.2447461E+04    1.7568776E+06    2.5427311E+02    1.8626264E+06
   -1.25   900.000   -1.927E+01    1.8845208E+06   -5.1266414E+02   -3.3122326E+04    1.7793386E+06    5.1267954E+02    1.8845208E+06
   -1.24   900.000   -1.962E+01    1.9071419E+06   -7.6544904E+02   -3.3816452E+04    1.8019050E+06    7.6546414E+02    1.9071419E+06
   -1.23   900.000   -1.997E+01    1.9306001E+06   -1.0143181E+03   -3.4533310E+04    1.8246466E+06    1.0143329E+03    1.9306001E+06
   -1.22   900.000   -2.032E+01    1.9549809E+06   -1.2619275E+03   -3.5276065E+04    1.8476519E+06    1.2619420E+03    1.9549809E+06
   -1.21   900.000   -2.068E+01    1.9803372E+06   -1.5115936E+03   -3.6047363E+04    1.8710265E+06    1.5116079E+03    1.9803372E+06
   -1.20   900.000   -2.104E+01    2.0066837E+06   -1.7669378E+03   -3.6849181E+04    1.8948883E+06    1.7669518E+03    2.0066837E+06
   -1.19   900.000   -2.141E+01    2.0339949E+06   -2.0315021E+03   -3.7682750E+04    1.9193603E+06    2.0315159E+03    2.0339949E+06
   -1.18   900.000   -2.178E+01    2.0622060E+06   -2.3083761E+03   -3.8548555E+04    1.9445629E+06    2.3083897E+03    2.0622060E+06
   -1.17   900.000   -2.216E+01    2.0912167E+06   -2.5998734E+03   -3.9446413E+04    1.9706041E+06    2.5998869E+03    2.0912167E+06
   -1.16   900.000   -2.254E+01    2.1208977E+06   -2.9072858E+03   -4.0375639E+04    1.9975694E+06    2.9072992E+03    2.1208977E+06
   -1.15   900.000   -2.292E+01    2.1510985E+06   -3.2307338E+03   -4.1335276E+04    2.0255125E+06    3.2307471E+03    2.1510985E+06
   -1.14   900.000   -2.331E+01    2.1816553E+06   -3.5691167E+03   -4.2324415E+04    2.0544476E+06    3.5691298E+03    2.1816553E+06
   -1.13   900.000   -2.370E+01    2.2123998E+06   -3.9201519E+03   -4.3342559E+04    2.0843436E+06    3.9201648E+03    2.2123999E+06
   -1.12   900.000   -2.410E+01    2.2431671E+06   -4.2804843E+03   -4.4390046E+04    2.1151226E+06    4.2804971E+03    2.2431671E+06
   -1.11   900.000   -2.451E+01    2.2738017E+06   -4.6458385E+03   -4.5468468E+04    2.1466608E+06    4.6458511E+03    2.2738017E+06
   -1.10   900.000   -2.491E+01    2.3041631E+06   -5.0111879E+03   -4.6581077E+04    2.1787935E+06    5.0112002E+03    2.3041632E+06
   -1.09   900.000   -2.533E+01    2.3341300E+06   -5.3709216E+03   -4.7733104E+04    2.2113241E+06    5.3709336E+03    2.3341300E+06
   -1.08   900.000   -2.574E+01    2.3636020E+06   -5.7189955E+03   -4.8931969E+04    2.2440347E+06    5.7190069E+03    2.3636020E+06
   -1.07   900.000   -2.616E+01    2.3925010E+06   -6.0490664E+03   -5.0187314E+04    2.2766993E+06    6.0490772E+03    2.3925010E+06
   -1.06   900.000   -2.659E+01    2.4207706E+06   -6.3546165E+03   -5.1510844E+04    2.3090975E+06    6.3546267E+03    2.4207706E+06
   -1.05   900.000   -2.702E+01    2.4483746E+06   -6.6290784E+03   -5.2915959E+04    2.3410272E+06    6.6290878E+03    2.4483746E+06
   -1.04   900.000   -2.745E+01    2.4752946E+06   -6.8659712E+03   -5.4417176E+04    2.3723153E+06    6.8659796E+03    2.4752946E+06
   -1.03   900.000   -2.788E+01    2.5015269E+06   -7.0590543E+03   -5.6029380E+04    2.4028264E+06    7.0590617E+03    2.5015269E+06
   -1.02   900.000   -2.832E+01    2.5270784E+06   -7.2024972E+03   -5.7766952E+04    2.4324669E+06    7.2025033E+03    2.5270784E+06
   -1.01   900.000   -2.876E+01    2.5519635E+06   -7.2910515E+03   -5.9642828E+04    2.4611857E+06    7.2910563E+03    2.5519636E+06
   -1.00   900.000   -2.921E+01    2.5762000E+06   -7.3202110E+03   -6.1667557E+04    2.4889718E+06    7.3202143E+03    2.5762001E+06
   -0.99   900.000   -2.965E+01    2.5998059E+06   -7.2863367E+03   -6.3848431E+04    2.5158473E+06    7.2863383E+03    2.5998059E+06
   -0.98   900.000   -3.010E+01    2.6227966E+06   -7.1867311E+03   -6.6188711E+04    2.5418599E+06    7.1867310E+03    2.6227966E+06
   -0.97   900.000   -3.055E+01    2.6451833E+06   -7.0196509E+03   -6.8687012E+04    2.5670729E+06    7.0196490E+03    2.6451833E+06
   -0.96   900.000   -3.100E+01    2.6669716E+06   -6.7842613E+03   -7.1336844E+04    2.5915562E+06    6.7842576E+03    2.6669716E+06
   -0.95   900.000   -3.145E+01    2.6881613E+06   -6.4805439E+03   -7.4126323E+04    2.6153780E+06    6.4805382E+03    2.6881613E+06
   -0.94   900.000   -3.191E+01    2.7087476E+06   -6.1091841E+03   -7.7038046E+04    2.6385989E+06    6.1091763E+03    2.7087477E+06
   -0.93   900.000   -3.236E+01    2.7287227E+06   -5.6714666E+03   -8.0049110E+04    2.6612683E+06    5.6714568E+03    2.7287228E+06
   -0.92   900.000   -3.281E+01    2.7480786E+06   -5.1692082E+03   -8.3131274E+04    2.6834235E+06    5.1691963E+03    2.7480786E+06
   -0.91   900.000   -3.327E+01    2.7668104E+06   -4.6047482E+03   -8.6251245E+04    2.7050911E+06    4.6047343E+03    2.7668105E+06
   -0.90   900.000   -3.372E+01    2.7849203E+06   -3.9810074E+03   -8.9371085E+04    2.7262904E+06    3.9809913E+03    2.7849203E+06
   -0.89   900.000   -3.418E+01    2.8024209E+06   -3.3016087E+03   -9.2448760E+04    2.7470381E+06    3.3015905E+03    2.8024209E+06
   -0.88   900.000   -3.463E+01    2.8193386E+06   -2.5710434E+03   -9.5438824E+04    2.7673525E+06    2.5710231E+03    2.8193386E+06
   -0.87   900.000   -3.509E+01    2.8357157E+06   -1.7948562E+03   -9.8293296E+04    2.7872576E+06    1.7948337E+03    2.8357158E+06
   -0.86   900.000   -3.554E+01    2.8516112E+06   -9.7981735E+02   -1.0096273E+05    2.8067860E+06    9.7979273E+02    2.8516113E+06
   -0.85   900.000   -3.600E+01    2.8670995E+06   -1.3405440E+02   -1.0339749E+05    2.8259797E+06    1.3402761E+02    2.8670995E+06
   -0.84   900.000   -3.645E+01    2.8822674E+06    7.3288172E+02   -1.0554931E+05    2.8448895E+06   -7.3291069E+02    2.8822675E+06
   -0.83   900.000   -3.690E+01    2.8972100E+06    1.6100336E+03   -1.0737292E+05    2.8635721E+06   -1.6100647E+03    2.8972101E+06
   -0.82   900.000   -3.735E+01    2.9120239E+06    2.4851481E+03   -1.0882789E+05    2.8820856E+06   -2.4851815E+03    2.9120240E+06
   -0.81   900.000   -3.780E+01    2.9268007E+06    3.3448865E+03   -1.0988046E+05    2.9004841E+06   -3.3449221E+03    2.9268007E+06
   -0.80   900.000   -3.826E+01    2.9416195E+06    4.1751309E+03   -1.1050515E+05    2.9188118E+06   -4.1751687E+03    2.9416195E+06
   -0.79   900.000   -3.871E+01    2.9565407E+06    4.9613803E+03   -1.1068620E+05    2.9370962E+06   -4.9614204E+03    2.9565408E+06
   -0.78   900.000   -3.915E+01    2.9716003E+06    5.6892191E+03   -1.1041854E+05    2.9553436E+06   -5.6892614E+03    2.9716003E+06
   -0.77   900.000   -3.960E+01    2.9868054E+06    6.3448315E+03   -1.0970823E+05    2.9735346E+06   -6.3448760E+03    2.9868054E+06
   -0.76   900.000   -4.005E+01    3.0021325E+06    6.9155296E+03   -1.0857226E+05    2.9916217E+06   -6.9155763E+03    3.0021325E+06
   -0.75   900.000   -4.050E+01    3.0175262E+06    7.3902548E+03   -1.0703775E+05    3.0095286E+06   -7.3903037E+03    3.0175263E+06
   -0.74   900.000   -4.094E+01    3.0329005E+06    7.7600128E+03   -1.0514051E+05    3.0271510E+06   -7.7600638E+03    3.0329005E+06
   -0.73   900.000   -4.139E+01    3.0481400E+06    8.0182098E+03   -1.0292309E+05    3.0443592E+06   -8.0182629E+03    3.0481400E+06
   -0.72   900.000   -4.183E+01    3.0631029E+06    8.1608678E+03   -1.0043246E+05    3.0610015E+06   -8.1609229E+03    3.0631029E+06
   -0.71   900.000   -4.228E+01    3.0776243E+06    8.1867114E+03   -9.7717539E+04    3.0769078E+06   -8.1867684E+03    3.0776243E+06
   -0.70   900.000   -4.272E+01    3.0915198E+06    8.0971352E+03   -9.4826738E+04    3.0918945E+06   -8.0971942E+03    3.0915198E+06
   -0.69   900.000   -4.317E+01    3.1045900E+06    7.8960685E+03   -9.1805804E+04    3.1057686E+06   -7.8961292E+03    3.1045901E+06
   -0.68   900.000   -4.361E+01    3.1166258E+06    7.5897601E+03   -8.8696137E+04    3.1183326E+06   -7.5898226E+03    3.1166259E+06
   -0.67   900.000   -4.405E+01    3.1274144E+06    7.1865070E+03   -8.5533736E+04    3.1293895E+06   -7.1865710E+03    3.1274144E+06
   -0.66   900.000   -4.449E+01    3.1367463E+06    6.6963394E+03   -8.2348847E+04    3.1387478E+06   -6.6964050E+03    3.1367463E+06
   -0.65   900.000   -4.494E+01    3.1444235E+06    6.1306760E+03   -7.9166296E+04    3.1462274E+06   -6.1307429E+03    3.1444236E+06
   -0.64   900.000   -4.538E+01    3.1502678E+06    5.5019497E+03   -7.6006412E+04    3.1516654E+06   -5.5020179E+03    3.1502679E+06
   -0.63   900.000   -4.583E+01    3.1541290E+06    4.8232104E+03   -7.2886338E+04    3.1549222E+06   -4.8232797E+03    3.1541291E+06
   -0.62   900.000   -4.627E+01    3.1558925E+06    4.1077089E+03   -6.9821516E+04    3.1558869E+06   -4.1077792E+03    3.1558926E+06
   -0.61   900.000   -4.672E+01    3.1554847E+06    3.3684751E+03   -6.6827101E+04    3.1544816E+06   -3.3685463E+03    3.1554848E+06
   -0.60   900.000   -4.717E+01    3.1528767E+06    2.6179072E+03   -6.3919081E+04    3.1506644E+06   -2.6179791E+03    3.1528768E+06
   -0.59   900.000   -4.762E+01    3.1480850E+06    1.8673936E+03   -6.1114959E+04    3.1444304E+06   -1.8674659E+03    3.1480851E+06
   -0.58   900.000   -4.807E+01    3.1411690E+06    1.1269878E+03   -5.8433916E+04    3.1358108E+06   -1.1270604E+03    3.1411691E+06
   -0.57   900.000   -4.852E+01    3.1322267E+06    4.0515307E+02   -5.5896477E+04    3.1248703E+06   -4.0522579E+02    3.1322268E+06
   -0.56   900.000   -4.898E+01    3.1213878E+06   -2.9141807E+02   -5.3523772E+04    3.1117031E+06    2.9134549E+02    3.1213879E+06
   -0.55   900.000   -4.944E+01    3.1088060E+06   -9.5791073E+02   -5.1336551E+04    3.0964285E+06    9.5783850E+02    3.1088061E+06
   -0.54   900.000   -4.990E+01    3.0946507E+06   -1.5914314E+03   -4.9354122E+04    3.0791864E+06    1.5913597E+03    3.0946508E+06
   -0.53   900.000   -5.037E+01    3.0790996E+06   -2.1910027E+03   -4.7593387E+04    3.0601335E+06    2.1909319E+03    3.0790997E+06
   -0.52   900.000   -5.084E+01    3.0623316E+06   -2.7575222E+03   -4.6068101E+04    3.0394406E+06    2.7574524E+03    3.0623317E+06
   -0.51   900.000   -5.132E+01    3.0445222E+06   -3.2936917E+03   -4.4788433E+04    3.0172908E+06    3.2936232E+03    3.0445223E+06
   -0.50   900.000   -5.180E+01    3.0258400E+06   -3.8039176E+03   -4.3760850E+04    2.9938783E+06    3.8038506E+03    3.0258401E+06
   -0.49   900.000   -5.229E+01    3.0064447E+06   -4.2941717E+03   -4.2988288E+04    2.9694078E+06    4.2941062E+03    3.0064448E+06
   -0.48   900.000   -5.278E+01    2.9864867E+06   -4.7717984E+03   -4.2470525E+04    2.9440937E+06    4.7717347E+03    2.9864868E+06
   -0.47   900.000   -5.328E+01    2.9661075E+06   -5.2452520E+03   -4.2204692E+04    2.9181581E+06    5.2451901E+03    2.9661076E+06
   -0.46   900.000   -5.378E+01    2.9454409E+06   -5.7237490E+03   -4.2185809E+04    2.8918276E+06    5.7236890E+03    2.9454410E+06
   -0.45   900.000   -5.430E+01    2.9246138E+06   -6.2168330E+03   -4.2407302E+04    2.8653295E+06    6.2167749E+03    2.9246139E+06
   -0.44   900.000   -5.482E+01    2.9037469E+06   -6.7338588E+03   -4.2861448E+04    2.8388853E+06    6.7338026E+03    2.9037470E+06
   -0.43   900.000   -5.535E+01    2.8829544E+06   -7.2834185E+03   -4.3539728E+04    2.8127044E+06    7.2833640E+03    2.8829546E+06
   -0.42   900.000   -5.589E+01    2.8623431E+06   -7.8727486E+03   -4.4433106E+04    2.7869771E+06    7.8726959E+03    2.8623432E+06
   -0.41   900.000   -5.643E+01    2.8420103E+06   -8.5071677E+03   -4.5532224E+04    2.7618672E+06    8.5071165E+03    2.8420104E+06
   -0.40   900.000   -5.699E+01    2.8220411E+06   -9.1895996E+03   -4.6827536E+04    2.7375070E+06    9.1895499E+03    2.8220412E+06
   -0.39   900.000   -5.755E+01    2.8025057E+06   -9.9202404E+03   -4.8309382E+04    2.7139931E+06    9.9201920E+03    2.8025058E+06
   -0.38   900.000   -5.812E+01    2.7834564E+06   -1.0696414E+04   -4.9967993E+04    2.6913845E+06    1.0696367E+04    2.7834565E+06
   -0.37   900.000   -5.870E+01    2.7649259E+06   -1.1512649E+04   -5.1793424E+04    2.6697040E+06    1.1512602E+04    2.7649260E+06
   -0.36   900.000   -5.929E+01    2.7469262E+06   -1.2360975E+04   -5.3775392E+04    2.6489416E+06    1.2360930E+04    2.7469264E+06
   -0.35   900.000   -5.989E+01    2.7294500E+06   -1.3231442E+04   -5.5903027E+04    2.6290600E+06    1.3231397E+04    2.7294501E+06
   -0.34   900.000   -6.050E+01    2.7124725E+06   -1.4112781E+04   -5.8164541E+04    2.6100023E+06    1.4112737E+04    2.7124726E+06
   -0.33   900.000   -6.111E+01    2.6959558E+06   -1.4993189E+04   -6.0546828E+04    2.5917004E+06    1.4993145E+04    2.6959559E+06
   -0.32   900.000   -6.174E+01    2.6798536E+06   -1.5861123E+04   -6.3035055E+04    2.5740843E+06    1.5861080E+04    2.6798537E+06
   -0.31   900.000   -6.237E+01    2.6641171E+06   -1.6706053E+04   -6.5612297E+04    2.5570898E+06    1.6706011E+04    2.6641173E+06
   -0.30   900.000   -6.301E+01    2.6487010E+06   -1.7519099E+04   -6.8259287E+04    2.5406664E+06    1.7519058E+04    2.6487011E+06
   -0.29   900.000   -6.366E+01    2.6335683E+06   -1.8293486E+04   -7.0954352E+04    2.5247828E+06    1.8293446E+04    2.6335684E+06
   -0.28   900.000   -6.432E+01    2.6186957E+06   -1.9024810E+04   -7.3673606E+04    2.5094301E+06    1.9024771E+04    2.6186958E+06
   -0.27   900.000   -6.498E+01    2.6040768E+06   -1.9711071E+04   -7.6391418E+04    2.4946239E+06    1.9711032E+04    2.6040769E+06
   -0.26   900.000   -6.565E+01    2.5897245E+06   -2.0352502E+04   -7.9081171E+04    2.4804028E+06    2.0352465E+04    2.5897246E+06
   -0.25   900.000   -6.633E+01    2.5756716E+06   -2.0951214E+04   -8.1716266E+04    2.4668262E+06    2.0951179E+04    2.5756717E+06
   -0.24   900.000   -6.702E+01    2.5619705E+06   -2.1510689E+04   -8.4271279E+04    2.4539692E+06    2.1510655E+04    2.5619706E+06
   -0.23   900.000   -6.771E+01    2.5486907E+06   -2.2035184E+04   -8.6723162E+04    2.4419169E+06    2.2035152E+04    2.5486908E+06
   -0.22   900.000   -6.841E+01    2.5359160E+06   -2.2529107E+04   -8.9052348E+04    2.4307577E+06    2.2529077E+04    2.5359161E+06
   -0.21   900.000   -6.912E+01    2.5237400E+06   -2.2996414E+04   -9.1243606E+04    2.4205759E+06    2.2996386E+04    2.5237401E+06
   -0.20   900.000   -6.983E+01    2.5122615E+06   -2.3440097E+04   -9.3286548E+04    2.4114453E+06    2.3440071E+04    2.5122616E+06
   -0.19   900.000   -7.055E+01    2.5015783E+06   -2.3861806E+04   -9.5175681E+04    2.4034225E+06    2.3861782E+04    2.5015784E+06
   -0.18   900.000   -7.128E+01    2.4917827E+06   -2.4261630E+04   -9.6910009E+04    2.3965426E+06    2.4261608E+04    2.4917828E+06
   -0.17   900.000   -7.201E+01    2.4829560E+06   -2.4638062E+04   -9.8492202E+04    2.3908157E+06    2.4638042E+04    2.4829561E+06
   -0.16   900.000   -7.275E+01    2.4751637E+06   -2.4988126E+04   -9.9927425E+04    2.3862260E+06    2.4988108E+04    2.4751638E+06
   -0.15   900.000   -7.350E+01    2.4684519E+06   -2.5307660E+04   -1.0122197E+05    2.3827321E+06    2.5307643E+04    2.4684520E+06
   -0.14   900.000   -7.425E+01    2.4628450E+06   -2.5591694E+04   -1.0238182E+05    2.3802697E+06    2.5591680E+04    2.4628451E+06
   -0.13   900.000   -7.501E+01    2.4583433E+06   -2.5834910E+04   -1.0341138E+05    2.3787558E+06    2.5834897E+04    2.4583434E+06
   -0.12   900.000   -7.578E+01    2.4549235E+06   -2.6032099E+04   -1.0431240E+05    2.3780934E+06    2.6032088E+04    2.4549236E+06
   -0.11   900.000   -7.655E+01    2.4525391E+06   -2.6178605E+04   -1.0508330E+05    2.3781781E+06    2.6178595E+04    2.4525392E+06
   -0.10   900.000   -7.733E+01    2.4511227E+06   -2.6270692E+04   -1.0571894E+05    2.3789034E+06    2.6270683E+04    2.4511228E+06
   -0.09   900.000   -7.811E+01    2.4505892E+06   -2.6305821E+04   -1.0621076E+05    2.3801664E+06    2.6305813E+04    2.4505893E+06
   -0.08   900.000   -7.890E+01    2.4508394E+06   -2.6282814E+04   -1.0654743E+05    2.3818721E+06    2.6282807E+04    2.4508395E+06
   -0.07   900.000   -7.970E+01    2.4517643E+06   -2.6201898E+04   -1.0671576E+05    2.3839366E+06    2.6201892E+04    2.4517644E+06
   -0.06   900.000   -8.050E+01    2.4532489E+06   -2.6064632E+04   -1.0670185E+05    2.3862883E+06    2.6064627E+04    2.4532490E+06
   -0.05   900.000   -8.131E+01    2.4551756E+06   -2.5873732E+04   -1.0649236E+05    2.3888672E+06    2.5873728E+04    2.4551757E+06
   -0.04   900.000   -8.212E+01    2.4574268E+06   -2.5632817E+04   -1.0607583E+05    2.3916227E+06    2.5632814E+04    2.4574269E+06
   -0.03   900.000   -8.294E+01    2.4598858E+06   -2.5346105E+04   -1.0544378E+05    2.3945099E+06    2.5346102E+04    2.4598859E+06
   -0.02   900.000   -8.376E+01    2.4624368E+06   -2.5018087E+04   -1.0459178E+05    2.3974838E+06    2.5018085E+04    2.4624369E+06
   -0.01   900.000   -8.459E+01    2.4649634E+06   -2.4653223E+04   -1.0352008E+05    2.4004945E+06    2.4653222E+04    2.4649635E+06
    0.00   900.000   -8.543E+01    2.4673464E+06   -2.4255678E+04   -1.0223406E+05    2.4034805E+06    2.4255678E+04    2.4673465E+06
    0.01   900.000   -8.627E+01    2.4694610E+06   -2.3829130E+04   -1.0074421E+05    2.4063641E+06    2.3829131E+04    2.4694611E+06
    0.02   900.000   -8.712E+01    2.4711737E+06   -2.3376660E+04   -9.9065778E+04    2.4090466E+06    2.3376662E+04    2.4711737E+06
    0.03   900.000   -8.797E+01    2.4723403E+06   -2.2900721E+04   -9.7218051E+04    2.4114055E+06    2.2900724E+04    2.4723403E+06
    0.04   900.000   -8.883E+01    2.4728044E+06   -2.2403190E+04   -9.5223281E+04    2.4132933E+06    2.2403194E+04    2.4728045E+06
    0.05   900.000   -8.969E+01    2.4723973E+06   -2.1885472E+04   -9.3105378E+04    2.4145387E+06    2.1885478E+04    2.4723973E+06
    0.06   900.000   -9.056E+01    2.4709393E+06   -2.1348650E+04   -9.0888466E+04    2.4149489E+06    2.1348658E+04    2.4709394E+06
    0.07   900.000   -9.143E+01    2.4682432E+06   -2.0793640E+04   -8.8595423E+04    2.4143148E+06    2.0793649E+04    2.4682433E+06
    0.08   900.000   -9.230E+01    2.4641184E+06   -2.0221360E+04   -8.6246580E+04    2.4124169E+06    2.0221370E+04    2.4641184E+06
    0.09   900.000   -9.318E+01    2.4583768E+06   -1.9632869E+04   -8.3858690E+04    2.4090337E+06    1.9632882E+04    2.4583768E+06
    0.10   900.000   -9.407E+01    2.4508399E+06   -1.9029497E+04   -8.1444293E+04    2.4039500E+06    1.9029511E+04    2.4508400E+06
    0.11   900.000   -9.495E+01    2.4413457E+06   -1.8412933E+04   -7.9011536E+04    2.3969660E+06    1.8412948E+04    2.4413458E+06
    0.12   900.000   -9.584E+01    2.4297552E+06   -1.7785291E+04   -7.6564469E+04    2.3879059E+06    1.7785308E+04    2.4297552E+06
    0.13   900.000   -9.673E+01    2.4159589E+06   -1.7149142E+04   -7.4103747E+04    2.3766259E+06    1.7149160E+04    2.4159590E+06
    0.14   900.000   -9.762E+01    2.3998816E+06   -1.6507508E+04   -7.1627659E+04    2.3630201E+06    1.6507527E+04    2.3998816E+06
    0.15   900.000   -9.852E+01    2.3814851E+06   -1.5863827E+04   -6.9133342E+04    2.3470251E+06    1.5863847E+04    2.3814852E+06
    0.16   900.000   -9.941E+01    2.3607704E+06   -1.5221883E+04   -6.6618024E+04    2.3286213E+06    1.5221905E+04    2.3607704E+06
    0.17   900.000   -1.003E+02    2.3377763E+06   -1.4585711E+04   -6.4080172E+04    2.3078330E+06    1.4585733E+04    2.3377764E+06
    0.18   900.000   -1.012E+02    2.3125785E+06   -1.3959485E+04   -6.1520417E+04    2.2847259E+06    1.3959508E+04    2.3125786E+06
    0.19   900.000   -1.021E+02    2.2852860E+06   -1.3347406E+04   -5.8942194E+04    2.2594023E+06    1.3347429E+04    2.2852860E+06
    0.20   900.000   -1.030E+02    2.2560369E+06   -1.2753598E+04   -5.6352060E+04    2.2319965E+06    1.2753621E+04    2.2560370E+06
    0.21   900.000   -1.038E+02    2.2249950E+06   -1.2182036E+04   -5.3759695E+04    2.2026684E+06    1.2182059E+04    2.2249951E+06
    0.22   900.000   -1.047E+02    2.1923448E+06   -1.1636488E+04   -5.1177630E+04    2.1715979E+06    1.1636511E+04    2.1923448E+06
    0.23   900.000   -1.056E+02    2.1582877E+06   -1.1120498E+04   -4.8620752E+04    2.1389801E+06    1.1120520E+04    2.1582877E+06
    0.24   900.000   -1.064E+02    2.1230385E+06   -1.0637374E+04   -4.6105665E+04    2.1050208E+06    1.0637396E+04    2.1230385E+06
    0.25   900.000   -1.073E+02    2.0868219E+06   -1.0190189E+04   -4.3649948E+04    2.0699337E+06    1.0190210E+04    2.0868219E+06
    0.26   900.000   -1.081E+02    2.0498700E+06   -9.7817636E+03   -4.1271411E+04    2.0339385E+06    9.7817837E+03    2.0498700E+06
    0.27   900.000   -1.090E+02    2.0124194E+06   -9.4146307E+03   -3.8987361E+04    1.9972594E+06    9.4146499E+03    2.0124195E+06
    0.28   900.000   -1.098E+02    1.9747093E+06   -9.0909640E+03   -3.6813950E+04    1.9601248E+06    9.0909822E+03    1.9747093E+06
    0.29   900.000   -1.106E+02    1.9369787E+06   -8.8124793E+03   -3.4765626E+04    1.9227662E+06    8.8124965E+03    1.9369787E+06
    0.30   900.000   -1.114E+02    1.8994647E+06   -8.5803103E+03   -3.2854714E+04    1.8854175E+06    8.5803264E+03    1.8994647E+06
    0.31   900.000   -1.122E+02    1.8624002E+06   -8.3948727E+03   -3.1091137E+04    1.8483141E+06    8.3948877E+03    1.8624003E+06
    0.32   900.000   -1.130E+02    1.8260115E+06   -8.2557349E+03   -2.9482285E+04    1.8116903E+06    8.2557488E+03    1.8260116E+06
    0.33   900.000   -1.137E+02    1.7905164E+06   -8.1615134E+03   -2.8033025E+04    1.7757776E+06    8.1615262E+03    1.7905164E+06
    0.34   900.000   -1.145E+02    1.7561217E+06   -8.1098116E+03   -2.6745821E+04    1.7408018E+06    8.1098234E+03    1.7561217E+06
    0.35   900.000   -1.152E+02    1.7230215E+06   -8.0972172E+03   -2.5620966E+04    1.7069806E+06    8.0972279E+03    1.7230216E+06
    0.36   900.000   -1.159E+02    1.6913952E+06   -8.1193661E+03   -2.4656869E+04    1.6745203E+06    8.1193758E+03    1.6913953E+06
    0.37   900.000   -1.167E+02    1.6614058E+06   -8.1710745E+03   -2.3850394E+04    1.6436135E+06    8.1710833E+03    1.6614059E+06
    0.38   900.000   -1.174E+02    1.6331983E+06   -8.2465312E+03   -2.3197207E+04    1.6144369E+06    8.2465391E+03    1.6331983E+06
    0.39   900.000   -1.180E+02    1.6068985E+06   -8.3395353E+03   -2.2692117E+04    1.5871494E+06    8.3395424E+03    1.6068986E+06
    0.40   900.000   -1.187E+02    1.5826123E+06   -8.4437573E+03   -2.2329386E+04    1.5618905E+06    8.4437638E+03    1.5826123E+06
    0.41   900.000   -1.194E+02    1.5604243E+06   -8.5530011E+03   -2.2102985E+04    1.5387793E+06    8.5530069E+03    1.5604244E+06
    0.42   900.000   -1.200E+02    1.5403982E+06   -8.6614403E+03   -2.2006794E+04    1.5179134E+06    8.6614456E+03    1.5403982E+06
    0.43   900.000   -1.207E+02    1.5225757E+06   -8.7638113E+03   -2.2034713E+04    1.4993686E+06    8.7638161E+03    1.5225757E+06
    0.44   900.000   -1.213E+02    1.5069772E+06   -8.8555468E+03   -2.2180704E+04    1.4831978E+06    8.8555512E+03    1.5069772E+06
    0.45   900.000   -1.220E+02    1.4936016E+06   -8.9328449E+03   -2.2438759E+04    1.4694310E+06    8.9328490E+03    1.4936017E+06
    0.46   900.000   -1.226E+02    1.4824268E+06   -8.9926745E+03   -2.2802817E+04    1.4580747E+06    8.9926784E+03    1.4824269E+06
    0.47   900.000   -1.232E+02    1.4734102E+06   -9.0327281E+03   -2.3266674E+04    1.4491113E+06    9.0327318E+03    1.4734103E+06
    0.48   900.000   -1.238E+02    1.4664891E+06   -9.0513351E+03   -2.3823928E+04    1.4424986E+06    9.0513386E+03    1.4664891E+06
    0.49   900.000   -1.244E+02    1.4615815E+06   -9.0473546E+03   -2.4468000E+04    1.4381695E+06    9.0473581E+03    1.4615816E+06
    0.50   900.000   -1.250E+02    1.4585867E+06   -9.0200657E+03   -2.5192276E+04    1.4360318E+06    9.0200691E+03    1.4585868E+06
    0.51   900.000   -1.256E+02    1.4573862E+06   -8.9690693E+03   -2.5990388E+04    1.4359679E+06    8.9690726E+03    1.4573862E+06
    0.52   900.000   -1.262E+02    1.4578443E+06   -8.8942132E+03   -2.6856621E+04    1.4378355E+06    8.8942165E+03    1.4578443E+06
    0.53   900.000   -1.268E+02    1.4598100E+06   -8.7955448E+03   -2.7786408E+04    1.4414687E+06    8.7955480E+03    1.4598100E+06
    0.54   900.000   -1.274E+02    1.4631181E+06   -8.6732899E+03   -2.8776855E+04    1.4466800E+06    8.6732930E+03    1.4631181E+06
    0.55   900.000   -1.280E+02    1.4675917E+06   -8.5278531E+03   -2.9827198E+04    1.4532629E+06    8.5278561E+03    1.4675917E+06
    0.56   900.000   -1.285E+02    1.4730451E+06   -8.3598310E+03   -3.0939118E+04    1.4609960E+06    8.3598338E+03    1.4730451E+06
    0.57   900.000   -1.291E+02    1.4792871E+06   -8.1700306E+03   -3.2116814E+04    1.4696477E+06    8.1700332E+03    1.4792871E+06
    0.58   900.000   -1.297E+02    1.4861251E+06   -7.9594863E+03   -3.3366789E+04    1.4789817E+06    7.9594886E+03    1.4861251E+06
    0.59   900.000   -1.303E+02    1.4933696E+06   -7.7294743E+03   -3.4697312E+04    1.4887635E+06    7.7294763E+03    1.4933696E+06
    0.60   900.000   -1.309E+02    1.5008392E+06   -7.4815252E+03   -3.6117579E+04    1.4987668E+06    7.4815268E+03    1.5008392E+06
    0.61   900.000   -1.315E+02    1.5083651E+06   -7.2174392E+03   -3.7636627E+04    1.5087801E+06    7.2174403E+03    1.5083651E+06
    0.62   900.000   -1.321E+02    1.5157960E+06   -6.9393083E+03   -3.9262116E+04    1.5186128E+06    6.9393089E+03    1.5157960E+06
    0.63   900.000   -1.327E+02    1.5230014E+06   -6.6495477E+03   -4.0999087E+04    1.5281011E+06    6.6495478E+03    1.5230014E+06
    0.64   900.000   -1.333E+02    1.5298749E+06   -6.3509340E+03   -4.2848859E+04    1.5371112E+06    6.3509335E+03    1.5298749E+06
    0.65   900.000   -1.340E+02    1.5363353E+06   -6.0466422E+03   -4.4808186E+04    1.5455427E+06    6.0466410E+03    1.5363353E+06
    0.66   900.000   -1.346E+02    1.5423269E+06   -5.7402703E+03   -4.6868789E+04    1.5533287E+06    5.7402684E+03    1.5423269E+06
    0.67   900.000   -1.352E+02    1.5478176E+06   -5.4358366E+03   -4.9017327E+04    1.5604346E+06    5.4358340E+03    1.5478176E+06
    0.68   900.000   -1.359E+02    1.5527958E+06   -5.1377365E+03   -5.1235819E+04    1.5668541E+06    5.1377332E+03    1.5527959E+06
    0.69   900.000   -1.365E+02    1.5572661E+06   -4.8506493E+03   -5.3502476E+04    1.5726043E+06    4.8506453E+03    1.5572661E+06
    0.70   900.000   -1.372E+02    1.5612432E+06   -4.5793932E+03   -5.5792846E+04    1.5777182E+06    4.5793885E+03    1.5612432E+06
    0.71   900.000   -1.379E+02    1.5647460E+06   -4.3287330E+03   -5.8081153E+04    1.5822368E+06    4.3287276E+03    1.5647460E+06
    0.72   900.000   -1.386E+02    1.5677912E+06   -4.1031548E+03   -6.0341679E+04    1.5862006E+06    4.1031487E+03    1.5677912E+06
    0.73   900.000   -1.393E+02    1.5703872E+06   -3.9066281E+03   -6.2550063E+04    1.5896421E+06    3.9066215E+03    1.5703873E+06
    0.74   900.000   -1.400E+02    1.5725297E+06   -3.7423803E+03   -6.4684384E+04    1.5925784E+06    3.7423732E+03    1.5725298E+06
    0.75   900.000   -1.407E+02    1.5741977E+06   -3.6127094E+03   -6.6725954E+04    1.5950064E+06    3.6127019E+03    1.5741977E+06
    0.76   900.000   -1.415E+02    1.5753522E+06   -3.5188609E+03   -6.8659774E+04    1.5969002E+06    3.5188531E+03    1.5753522E+06
    0.77   900.000   -1.422E+02    1.5759366E+06   -3.4609867E+03   -7.0474649E+04    1.5982106E+06    3.4609788E+03    1.5759367E+06
    0.78   900.000   -1.430E+02    1.5758791E+06   -3.4381976E+03   -7.2162993E+04    1.5988679E+06    3.4381896E+03    1.5758791E+06
    0.79   900.000   -1.438E+02    1.5750968E+06   -3.4487080E+03   -7.3720381E+04    1.5987859E+06    3.4487000E+03    1.5750968E+06
    0.80   900.000   -1.446E+02    1.5735015E+06   -3.4900608E+03   -7.5144914E+04    1.5978689E+06    3.4900529E+03    1.5735015E+06
    0.81   900.000   -1.454E+02    1.5710060E+06   -3.5594056E+03   -7.6436493E+04    1.5960192E+06    3.5593979E+03    1.5710061E+06
    0.82   900.000   -1.463E+02    1.5675315E+06   -3.6537974E+03   -7.7596043E+04    1.5931450E+06    3.6537900E+03    1.5675316E+06
    0.83   900.000   -1.472E+02    1.5630138E+06   -3.7704749E+03   -7.8624794E+04    1.5891688E+06    3.7704679E+03    1.5630139E+06
    0.84   900.000   -1.481E+02    1.5574094E+06   -3.9070828E+03   -7.9523634E+04    1.5840335E+06    3.9070762E+03    1.5574095E+06
    0.85   900.000   -1.490E+02    1.5507000E+06   -4.0618083E+03   -8.0292615E+04    1.5777083E+06    4.0618021E+03    1.5507001E+06
    0.86   900.000   -1.499E+02    1.5428957E+06   -4.2334175E+03   -8.0930625E+04    1.5701921E+06    4.2334119E+03    1.5428957E+06
    0.87   900.000   -1.509E+02    1.5340361E+06   -4.4211930E+03   -8.1435256E+04    1.5615145E+06    4.4211880E+03    1.5340361E+06
    0.88   900.000   -1.518E+02    1.5241903E+06   -4.6247900E+03   -8.1802890E+04    1.5517362E+06    4.6247856E+03    1.5241904E+06
    0.89   900.000   -1.528E+02    1.5134553E+06   -4.8440400E+03   -8.2028982E+04    1.5409459E+06    4.8440363E+03    1.5134554E+06
    0.90   900.000   -1.538E+02    1.5019526E+06   -5.0787383E+03   -8.2108530E+04    1.5292575E+06    5.0787351E+03    1.5019527E+06
    0.91   900.000   -1.549E+02    1.4898247E+06   -5.3284476E+03   -8.2036699E+04    1.5168056E+06    5.3284451E+03    1.4898248E+06
    0.92   900.000   -1.559E+02    1.4772307E+06   -5.5923483E+03   -8.1809517E+04    1.5037404E+06    5.5923463E+03    1.4772307E+06
    0.93   900.000   -1.570E+02    1.4643416E+06   -5.8691488E+03   -8.1424620E+04    1.4902230E+06    5.8691474E+03    1.4643417E+06
    0.94   900.000   -1.580E+02    1.4513359E+06   -6.1570652E+03   -8.0881921E+04    1.4764206E+06    6.1570642E+03    1.4513360E+06
    0.95   900.000   -1.591E+02    1.4383951E+06   -6.4538593E+03   -8.0184189E+04    1.4625026E+06    6.4538588E+03    1.4383951E+06
    0.96   900.000   -1.602E+02    1.4256994E+06   -6.7569250E+03   -7.9337433E+04    1.4486364E+06    6.7569248E+03    1.4256994E+06
    0.97   900.000   -1.613E+02    1.4134246E+06   -7.0633982E+03   -7.8351097E+04    1.4349848E+06    7.0633982E+03    1.4134247E+06
    0.98   900.000   -1.624E+02    1.4017386E+06   -7.3702730E+03   -7.7238012E+04    1.4217039E+06    7.3702731E+03    1.4017386E+06
    0.99   900.000   -1.635E+02    1.3907988E+06   -7.6745022E+03   -7.6014154E+04    1.4089413E+06    7.6745023E+03    1.3907989E+06
    1.00   900.000   -1.646E+02    1.3807506E+06   -7.9730687E+03   -7.4698213E+04    1.3968348E+06    7.9730687E+03    1.3807507E+06
    1.01   900.000   -1.657E+02    1.3717254E+06   -8.2630192E+03   -7.3311031E+04    1.3855126E+06    8.2630190E+03    1.3717255E+06
    1.02   900.000   -1.668E+02    1.3638400E+06   -8.5414604E+03   -7.1874965E+04    1.3750925E+06    8.5414599E+03    1.3638401E+06
    1.03   900.000   -1.679E+02    1.3571963E+06   -8.8055224E+03   -7.0413229E+04    1.3656827E+06    8.8055216E+03    1.3571963E+06
    1.04   900.000   -1.690E+02    1.3518809E+06   -9.0523045E+03   -6.8949251E+04    1.3573816E+06    9.0523032E+03    1.3518810E+06
    1.05   900.000   -1.701E+02    1.3479658E+06   -9.2788171E+03   -6.7506077E+04    1.3502785E+06    9.2788153E+03    1.3479659E+06
    1.06   900.000   -1.712E+02    1.3455082E+06   -9.4819413E+03   -6.6105836E+04    1.3444537E+06    9.4819389E+03    1.3455083E+06
    1.07   900.000   -1.723E+02    1.3445510E+06   -9.6584209E+03   -6.4769250E+04    1.3399780E+06    9.6584180E+03    1.3445511E+06
    1.08   900.000   -1.733E+02    1.3451230E+06   -9.8049016E+03   -6.3515189E+04    1.3369126E+06    9.8048981E+03    1.3451230E+06
    1.09   900.000   -1.743E+02    1.3472390E+06   -9.9180229E+03   -6.2360229E+04    1.3353077E+06    9.9180190E+03    1.3472390E+06
    1.10   900.000   -1.753E+02    1.3509000E+06   -9.9945607E+03   -6.1318220E+04    1.3352019E+06    9.9945564E+03    1.3509001E+06
    1.11   900.000   -1.763E+02    1.3560936E+06   -1.0031609E+04   -6.0399841E+04    1.3366206E+06    1.0031604E+04    1.3560937E+06
    1.12   900.000   -1.773E+02    1.3627944E+06   -1.0026782E+04   -5.9612156E+04    1.3395751E+06    1.0026777E+04    1.3627944E+06
    1.13   900.000   -1.783E+02    1.3709648E+06   -9.9784139E+03   -5.8958178E+04    1.3440622E+06    9.9784088E+03    1.3709649E+06
    1.14   900.000   -1.793E+02    1.3805574E+06   -9.8857326E+03   -5.8436478E+04    1.3500634E+06    9.8857275E+03    1.3805574E+06
    1.15   900.000   -1.802E+02    1.3915162E+06   -9.7489826E+03   -5.8040854E+04    1.3575464E+06    9.7489776E+03    1.3915162E+06
    1.16   900.000   -1.811E+02    1.4037804E+06   -9.5694898E+03   -5.7760101E+04    1.3664662E+06    9.5694850E+03    1.4037804E+06
    1.17   900.000   -1.820E+02    1.4172873E+06   -9.3496604E+03   -5.7577926E+04    1.3767675E+06    9.3496560E+03    1.4172873E+06
    1.18   900.000   -1.829E+02    1.4319767E+06   -9.0929206E+03   -5.7473024E+04    1.3883884E+06    9.0929167E+03    1.4319767E+06
    1.19   900.000   -1.838E+02    1.4477945E+06   -8.8036100E+03   -5.7419370E+04    1.4012641E+06    8.8036068E+03    1.4477945E+06
    1.20   900.000   -1.847E+02    1.4646974E+06   -8.4868443E+03   -5.7386751E+04    1.4153318E+06    8.4868419E+03    1.4646974E+06
    1.21   900.000   -1.856E+02    1.4826568E+06   -8.1483627E+03   -5.7341568E+04    1.4305354E+06    8.1483612E+03    1.4826568E+06
    1.22   900.000   -1.864E+02    1.5016615E+06   -7.7943696E+03   -5.7247917E+04    1.4468311E+06    7.7943693E+03    1.5016615E+06
    1.23   900.000   -1.873E+02    1.5217214E+06   -7.4313740E+03   -5.7068929E+04    1.4641921E+06    7.4313748E+03    1.5217213E+06
    1.24   900.000   -1.881E+02    1.5428684E+06   -7.0660218E+03   -5.6768328E+04    1.4826135E+06    7.0660240E+03    1.5428684E+06
    1.25   900.000   -1.889E+02    1.5651579E+06   -6.7049154E+03   -5.6312124E+04    1.5021155E+06    6.7049191E+03    1.5651579E+06
    1.26   900.000   -1.897E+02    1.5886674E+06   -6.3544090E+03   -5.5670336E+04    1.5227461E+06    6.3544142E+03    1.5886674E+06
    1.27   900.000   -1.906E+02    1.6134951E+06   -6.0203779E+03   -5.4818608E+04    1.5445821E+06    6.0203848E+03    1.6134951E+06
    1.28   900.000   -1.914E+02    1.6397568E+06   -5.7079622E+03   -5.3739611E+04    1.5677283E+06    5.7079708E+03    1.6397568E+06
    1.29   900.000   -1.922E+02    1.6675813E+06   -5.4212963E+03   -5.2424076E+04    1.5923146E+06    5.4213066E+03    1.6675813E+06
    1.30   900.000   -1.930E+02    1.6971054E+06   -5.1632442E+03   -5.0871412E+04    1.6184918E+06    5.1632564E+03    1.6971054E+06
    1.31   900.000   -1.938E+02    1.7284676E+06   -4.9351665E+03   -4.9089811E+04    1.6464254E+06    4.9351805E+03    1.7284675E+06
    1.32   900.000   -1.946E+02    1.7618020E+06   -4.7367473E+03   -4.7095874E+04    1.6762883E+06    4.7367632E+03    1.7618020E+06
    1.33   900.000   -1.954E+02    1.7972325E+06   -4.5659101E+03   -4.4913784E+04    1.7082527E+06    4.5659279E+03    1.7972325E+06
    1.34   900.000   -1.962E+02    1.8348671E+06   -4.4188423E+03   -4.2574106E+04    1.7424824E+06    4.4188620E+03    1.8348671E+06
    1.35   900.000   -1.970E+02    1.8747936E+06   -4.2901427E+03   -4.0112350E+04    1.7791253E+06    4.2901643E+03    1.8747935E+06
    1.36   900.000   -1.978E+02    1.9170764E+06   -4.1730878E+03   -3.7567395E+04    1.8183067E+06    4.1731112E+03    1.9170763E+06
    1.37   900.000   -1.986E+02    1.9617549E+06   -4.0600030E+03   -3.4979907E+04    1.8601249E+06    4.0600283E+03    1.9617549E+06
    1.38   900.000   -1.994E+02    2.0088436E+06   -3.9427091E+03   -3.2390842E+04    1.9046482E+06    3.9427361E+03    2.0088436E+06
    1.39   900.000   -2.002E+02    2.0583330E+06   -3.8130029E+03   -2.9840098E+04    1.9519140E+06    3.8130317E+03    2.0583329E+06
    1.40   900.000   -2.010E+02    2.1101921E+06   -3.6631293E+03   -2.7365332E+04    2.0019298E+06    3.6631596E+03    2.1101921E+06
    1.41   900.000   -2.018E+02    2.1643724E+06   -3.4861982E+03   -2.5000966E+04    2.0546756E+06    3.4862300E+03    2.1643724E+06
    1.42   900.000   -2.026E+02    2.2208113E+06   -3.2765123E+03   -2.2777352E+04    2.1101085E+06    3.2765455E+03    2.2208112E+06
    1.43   900.000   -2.034E+02    2.2794366E+06   -3.0297812E+03   -2.0720091E+04    2.1681675E+06    3.0298156E+03    2.2794366E+06
    1.44   900.000   -2.042E+02    2.3401712E+06   -2.7432141E+03   -1.8849516E+04    2.2287786E+06    2.7432496E+03    2.3401712E+06
    1.45   900.000   -2.050E+02    2.4029361E+06   -2.4155015E+03   -1.7180356E+04    2.2918608E+06    2.4155379E+03    2.4029360E+06
    1.46   900.000   -2.059E+02    2.4676538E+06   -2.0467067E+03   -1.5721620E+04    2.3573296E+06    2.0467437E+03    2.4676538E+06
    1.47   900.000   -2.067E+02    2.5342502E+06   -1.6381006E+03   -1.4476738E+04    2.4251009E+06    1.6381381E+03    2.5342501E+06
    1.48   900.000   -2.075E+02    2.6026551E+06   -1.1919756E+03   -1.3443980E+04    2.4950923E+06    1.1920133E+03    2.6026550E+06
    1.49   900.000   -2.083E+02    2.6728016E+06   -7.1147117E+02   -1.2617141E+04    2.5672226E+06    7.1150888E+02    2.6728015E+06
    1.50   900.000   -2.091E+02    2.7446241E+06   -2.0044028E+02   -1.1986414E+04    2.6414094E+06    2.0047778E+02    2.7446241E+06
    1.51   900.000   -2.100E+02    2.8180552E+06    3.3662957E+02   -1.1539363E+04    2.7175653E+06   -3.3659253E+02    2.8180551E+06
    1.52   900.000   -2.108E+02    2.8930212E+06    8.9463742E+02   -1.1261824E+04    2.7955927E+06   -8.9460104E+02    2.8930211E+06
    1.53   900.000   -2.116E+02    2.9694380E+06    1.4678443E+03   -1.1138603E+04    2.8753786E+06   -1.4678088E+03    2.9694380E+06
    1.54   900.000   -2.125E+02    3.0472061E+06    2.0498284E+03   -1.1153854E+04    2.9567895E+06   -2.0497940E+03    3.0472060E+06
    1.55   900.000   -2.133E+02    3.1262063E+06    2.6334547E+03   -1.1291072E+04    3.0396687E+06   -2.6334215E+03    3.1262062E+06
    1.56   900.000   -2.141E+02    3.2062965E+06    3.2108980E+03   -1.1532740E+04    3.1238344E+06   -3.2108663E+03    3.2062964E+06
    1.57   900.000   -2.150E+02    3.2873100E+06    3.7737547E+03   -1.1859756E+04    3.2090820E+06   -3.7737246E+03    3.2873099E+06
    1.58   900.000   -2.158E+02    3.3690554E+06    4.3132667E+03   -1.2250811E+04    3.2951885E+06   -4.3132385E+03    3.3690554E+06
    1.59   900.000   -2.166E+02    3.4513189E+06    4.8206619E+03   -1.2681925E+04    3.3819190E+06   -4.8206356E+03    3.4513188E+06
    1.60   900.000   -2.175E+02    3.5338681E+06    5.2875899E+03   -1.3126321E+04    3.4690355E+06   -5.2875658E+03    3.5338681E+06
    1.61   900.000   -2.183E+02    3.6164590E+06    5.7066099E+03   -1.3554741E+04    3.5563065E+06   -5.7065879E+03    3.6164590E+06
    1.62   900.000   -2.191E+02    3.6988435E+06    6.0716651E+03   -1.3936210E+04    3.6435159E+06   -6.0716454E+03    3.6988435E+06
    1.63   900.000   -2.199E+02    3.7807787E+06    6.3784749E+03   -1.4239145E+04    3.7304706E+06   -6.3784576E+03    3.7807786E+06
    1.64   900.000   -2.207E+02    3.8620363E+06    6.6247779E+03   -1.4432664E+04    3.8170058E+06   -6.6247629E+03    3.8620363E+06
    1.65   900.000   -2.216E+02    3.9424122E+06    6.8103811E+03   -1.4487860E+04    3.9029870E+06   -6.8103686E+03    3.9424121E+06
    1.66   900.000   -2.224E+02    4.0217337E+06    6.9370032E+03   -1.4378899E+04    3.9883086E+06   -6.9369932E+03    4.0217337E+06
    1.67   900.000   -2.232E+02    4.0998659E+06    7.0079305E+03   -1.4083774E+04    4.0728899E+06   -7.0079229E+03    4.0998658E+06
    1.68   900.000   -2.240E+02    4.1767141E+06    7.0275402E+03   -1.3584711E+04    4.1566675E+06   -7.0275352E+03    4.1767141E+06
    1.69   900.000   -2.248E+02    4.2522243E+06    7.0007664E+03   -1.2868225E+04    4.2395857E+06   -7.0007637E+03    4.2522243E+06
    1.70   900.000   -2.256E+02    4.3263788E+06    6.9325879E+03   -1.1924973E+04    4.3215867E+06   -6.9325875E+03    4.3263788E+06
    1.71   900.000   -2.264E+02    4.3991905E+06    6.8276147E+03   -1.0749508E+04    4.4025998E+06   -6.8276165E+03    4.3991905E+06
    1.72   900.000   -2.272E+02    4.4706933E+06    6.6898206E+03   -9.3400995E+03    4.4825325E+06   -6.6898244E+03    4.4706932E+06
    1.73   900.000   -2.280E+02    4.5409314E+06    6.5224430E+03   -7.6987178E+03    4.5612647E+06   -6.5224488E+03    4.5409314E+06
    1.74   900.000   -2.287E+02    4.6099490E+06    6.3280397E+03   -5.8312444E+03    4.6386456E+06   -6.3280472E+03    4.6099490E+06
    1.75   900.000   -2.295E+02    4.6777795E+06    6.1086607E+03   -3.7478832E+03    4.7144961E+06   -6.1086698E+03    4.6777795E+06
    1.76   900.000   -2.303E+02    4.7444373E+06    5.8660826E+03   -1.4636847E+03    4.7886156E+06   -5.8660931E+03    4.7444373E+06
    1.77   900.000   -2.311E+02    4.8099120E+06    5.6020425E+03    1.0009688E+03    4.8607929E+06   -5.6020543E+03    4.8099120E+06
    1.78   900.000   -2.319E+02    4.8741659E+06    5.3184204E+03    3.6201074E+03    4.9308217E+06   -5.3184331E+03    4.8741660E+06
    1.79   900.000   -2.326E+02    4.9371354E+06    5.0173319E+03    6.3623375E+03    4.9985173E+06   -5.0173453E+03    4.9371355E+06
    1.80   900.000   -2.334E+02    4.9987346E+06    4.7011185E+03    9.1915713E+03    5.0637351E+06   -4.7011325E+03    4.9987347E+06
    1.81   900.000   -2.342E+02    5.0588630E+06    4.3722426E+03    1.2068389E+04    5.1263864E+06   -4.3722569E+03    5.0588630E+06
    1.82   900.000   -2.349E+02    5.1174145E+06    4.0331177E+03    1.4951988E+04    5.1864517E+06   -4.0331320E+03    5.1174145E+06
    1.83   900.000   -2.357E+02    5.1742884E+06    3.6859159E+03    1.7802545E+04    5.2439897E+06   -3.6859302E+03    5.1742884E+06
    1.84   900.000   -2.364E+02    5.2294006E+06    3.3324050E+03    2.0583721E+04    5.2991392E+06   -3.3324189E+03    5.2294007E+06
    1.85   900.000   -2.372E+02    5.2826945E+06    2.9738597E+03    2.3264976E+04    5.3521165E+06   -2.9738731E+03    5.2826945E+06
    1.86   900.000   -2.379E+02    5.3341496E+06    2.6110836E+03    2.5823346E+04    5.4032058E+06   -2.6110963E+03    5.3341496E+06
    1.87   900.000   -2.387E+02    5.3837887E+06    2.2445553E+03    2.8244407E+04    5.4527442E+06   -2.2445672E+03    5.3837888E+06
    1.88   900.000   -2.394E+02    5.4316806E+06    1.8746894E+03    3.0522290E+04    5.5011027E+06   -1.8747002E+03    5.4316806E+06
    1.89   900.000   -2.401E+02    5.4779384E+06    1.5021744E+03    3.2658729E+04    5.5486636E+06   -1.5021840E+03    5.4779385E+06
    1.90   900.000   -2.408E+02    5.5227143E+06    1.1283316E+03    3.4661304E+04    5.5957967E+06   -1.1283399E+03    5.5227144E+06
    1.91   900.000   -2.416E+02    5.5661883E+06    7.5542484E+02    3.6541150E+04    5.6428348E+06   -7.5543173E+02    5.5661884E+06
    1.92   900.000   -2.423E+02    5.6085543E+06    3.8685113E+02    3.8310453E+04    5.6900515E+06   -3.8685652E+02    5.6085543E+06
    1.93   900.000   -2.430E+02    5.6500017E+06    2.7160845E+01    3.9980054E+04    5.7376418E+06   -2.7164676E+01    5.6500018E+06
    1.94   900.000   -2.437E+02    5.6906969E+06   -3.1812005E+02    4.1557398E+04    5.7857066E+06    3.1811782E+02    5.6906969E+06
    1.95   900.000   -2.444E+02    5.7307632E+06   -6.4285431E+02    4.3044961E+04    5.8342439E+06    6.4285369E+02    5.7307632E+06
    1.96   900.000   -2.451E+02    5.7702638E+06   -9.4079653E+02    4.4439193E+04    5.8831442E+06    9.4079749E+02    5.7702638E+06
    1.97   900.000   -2.458E+02    5.8091875E+06   -1.2061569E+03    4.5729886E+04    5.9321931E+06    1.2061594E+03    5.8091876E+06
    1.98   900.000   -2.465E+02    5.8474394E+06   -1.4341312E+03    4.6899875E+04    5.9810783E+06    1.4341352E+03    5.8474394E+06
    1.99   900.000   -2.472E+02    5.8848373E+06   -1.6213074E+03    4.7924973E+04    6.0294007E+06    1.6213127E+03    5.8848373E+06
    2.00   900.000   -2.479E+02    5.9211145E+06   -1.7658811E+03    4.8774088E+04    6.0766899E+06    1.7658877E+03    5.9211145E+06
    2.01   900.000   -2.485E+02    5.9559289E+06   -1.8676543E+03    4.9409581E+04    6.1224195E+06    1.8676621E+03    5.9559289E+06
    2.02   900.000   -2.492E+02    5.9888773E+06   -1.9278346E+03    4.9787950E+04    6.1660251E+06    1.9278434E+03    5.9888774E+06
    2.03   900.000   -2.499E+02    6.0195147E+06   -1.9486948E+03    4.9861030E+04    6.2069211E+06    1.9487046E+03    6.0195148E+06
    2.04   900.000   -2.505E+02    6.0473763E+06   -1.9331789E+03    4.9577818E+04    6.2445173E+06    1.9331896E+03    6.0473763E+06
    2.05   900.000   -2.512E+02    6.0720012E+06   -1.8845409E+03    4.8887035E+04    6.2782347E+06    1.8845524E+03    6.0720013E+06
    2.06   900.000   -2.518E+02    6.0929561E+06   -1.8060893E+03    4.7740377E+04    6.3075201E+06    1.8061016E+03    6.0929562E+06
    2.07   900.000   -2.525E+02    6.1098564E+06   -1.7010715E+03    4.6096296E+04    6.3318599E+06    1.7010845E+03    6.1098565E+06
    2.08   900.000   -2.531E+02    6.1223850E+06   -1.5726958E+03    4.3924018E+04    6.3507938E+06    1.5727095E+03    6.1223850E+06
    2.09   900.000   -2.538E+02    6.1303061E+06   -1.4242497E+03    4.1207392E+04    6.3639260E+06    1.4242641E+03    6.1303061E+06
    2.10   900.000   -2.544E+02    6.1334748E+06   -1.2592528E+03    3.7948152E+04    6.3709372E+06    1.2592680E+03    6.1334749E+06
    2.11   900.000   -2.550E+02    6.1318418E+06   -1.0815775E+03    3.4168169E+04    6.3715948E+06    1.0815935E+03    6.1318418E+06
    2.12   900.000   -2.556E+02    6.1254526E+06   -8.9547970E+02    2.9910402E+04    6.3657609E+06    8.9549648E+02    6.1254526E+06
    2.13   900.000   -2.562E+02    6.1144443E+06   -7.0550918E+02    2.5238382E+04    6.3534003E+06    7.0552684E+02    6.1144443E+06
    2.14   900.000   -2.568E+02    6.0990383E+06   -5.1629539E+02    2.0234253E+04    6.3345848E+06    5.1631398E+02    6.0990383E+06
    2.15   900.000   -2.574E+02    6.0795316E+06   -3.3223295E+02    1.4995560E+04    6.3094966E+06    3.3225251E+02    6.0795316E+06
    2.16   900.000   -2.580E+02    6.0562864E+06   -1.5711158E+02    9.6311139E+03    6.2784283E+06    1.5713215E+02    6.0562865E+06
    2.17   900.000   -2.586E+02    6.0297204E+06    6.2545168E+00    4.2563557E+03    6.2417805E+06   -6.2329030E+00    6.0297204E+06
    2.18   900.000   -2.592E+02    6.0002958E+06    1.5634385E+02   -1.0113695E+03    6.2000566E+06   -1.5632116E+02    6.0002958E+06
    2.19   900.000   -2.598E+02    5.9685094E+06    2.9314741E+02   -6.0572341E+03    6.1538544E+06   -2.9312363E+02    5.9685094E+06
    2.20   900.000   -2.604E+02    5.9348831E+06    4.1826439E+02   -1.0772766E+04    6.1038549E+06   -4.1823951E+02    5.9348831E+06
    2.21   900.000   -2.609E+02    5.8999532E+06    5.3486630E+02   -1.5058940E+04    6.0508076E+06   -5.3484031E+02    5.8999532E+06
    2.22   900.000   -2.615E+02    5.8642598E+06    6.4753981E+02   -1.8828466E+04    5.9955128E+06   -6.4751274E+02    5.8642598E+06
    2.23   900.000   -2.621E+02    5.8283351E+06    7.6203141E+02   -2.2007354E+04    5.9388018E+06   -7.6200327E+02    5.8283351E+06
    2.24   900.000   -2.626E+02    5.7926910E+06    8.8492255E+02   -2.4535853E+04    5.8815131E+06   -8.8489338E+02    5.7926910E+06
    2.25   900.000   -2.632E+02    5.7578047E+06    1.0232638E+03   -2.6368962E+04    5.8244680E+06   -1.0232336E+03    5.7578047E+06
    2.26   900.000   -2.637E+02    5.7241047E+06    1.1841913E+03   -2.7476655E+04    5.7684437E+06   -1.1841602E+03    5.7241047E+06
    2.27   900.000   -2.642E+02    5.6919560E+06    1.3745432E+03   -2.7843990E+04    5.7141474E+06   -1.3745113E+03    5.6919560E+06
    2.28   900.000   -2.648E+02    5.6616472E+06    1.6004883E+03   -2.7471180E+04    5.6621909E+06   -1.6004557E+03    5.6616472E+06
    2.29   900.000   -2.653E+02    5.6333782E+06    1.8671797E+03   -2.6373680E+04    5.6130684E+06   -1.8671465E+03    5.6333782E+06
    2.30   900.000   -2.658E+02    5.6072527E+06    2.1784467E+03   -2.4582245E+04    5.5671391E+06   -2.1784131E+03    5.6072527E+06
    2.31   900.000   -2.663E+02    5.5832735E+06    2.5365437E+03   -2.2142859E+04    5.5246155E+06   -2.5365097E+03    5.5832735E+06
    2.32   900.000   -2.668E+02    5.5613437E+06    2.9419769E+03   -1.9116355E+04    5.4855592E+06   -2.9419428E+03    5.5613437E+06
    2.33   900.000   -2.674E+02    5.5412723E+06    3.3934306E+03   -1.5577553E+04    5.4498852E+06   -3.3933964E+03    5.5412723E+06
    2.34   900.000   -2.679E+02    5.5227866E+06    3.8878082E+03   -1.1613693E+04    5.4173740E+06   -3.8877742E+03    5.5227866E+06
    2.35   900.000   -2.684E+02    5.5055488E+06    4.4204001E+03   -7.3220580E+03    5.3876929E+06   -4.4203664E+03    5.5055489E+06
    2.36   900.000   -2.689E+02    5.4891781E+06    4.9851729E+03   -2.8067302E+03    5.3604234E+06   -4.9851397E+03    5.4891782E+06
    2.37   900.000   -2.694E+02    5.4732759E+06    5.5751718E+03    1.8254157E+03    5.3350950E+06   -5.5751391E+03    5.4732759E+06
    2.38   900.000   -2.699E+02    5.4574533E+06    6.1830101E+03    6.4692432E+03    5.3112219E+06   -6.1829781E+03    5.4574533E+06
    2.39   900.000   -2.703E+02    5.4413599E+06    6.8014165E+03    1.1026049E+04    5.2883419E+06   -6.8013854E+03    5.4413599E+06
    2.40   900.000   -2.708E+02    5.4247102E+06    7.4237996E+03    1.5407971E+04    5.2660524E+06   -7.4237694E+03    5.4247103E+06
    2.41   900.000   -2.713E+02    5.4073071E+06    8.0447832E+03    1.9541647E+04    5.2440435E+06   -8.0447541E+03    5.4073071E+06
    2.42   900.000   -2.718E+02    5.3890597E+06    8.6606622E+03    2.3370701E+04    5.2221230E+06   -8.6606342E+03    5.3890597E+06
    2.43   900.000   -2.723E+02    5.3699945E+06    9.2697255E+03    2.6856761E+04    5.2002342E+06   -9.2696987E+03    5.3699945E+06
    2.44   900.000   -2.728E+02    5.3502584E+06    9.8724000E+03    2.9978908E+04    5.1784631E+06   -9.8723745E+03    5.3502584E+06
    2.45   900.000   -2.733E+02    5.3301129E+06    1.0471178E+04    3.2731650E+04    5.1570353E+06   -1.0471153E+04    5.3301130E+06
    2.46   900.000   -2.737E+02    5.3099211E+06    1.1070310E+04    3.5121733E+04    5.1363038E+06   -1.1070287E+04    5.3099211E+06
    2.47   900.000   -2.742E+02    5.2901270E+06    1.1675279E+04    3.7164295E+04    5.1167274E+06   -1.1675257E+04    5.2901270E+06
    2.48   900.000   -2.747E+02    5.2712302E+06    1.2292078E+04    3.8878932E+04    5.0988443E+06   -1.2292058E+04    5.2712302E+06
    2.49   900.000   -2.752E+02    5.2537577E+06    1.2926377E+04    4.0286279E+04    5.0832400E+06   -1.2926358E+04    5.2537577E+06
    2.50   900.000   -2.756E+02    5.2382352E+06    1.3582647E+04    4.1405578E+04    5.0705152E+06   -1.3582630E+04    5.2382352E+06
    2.51   900.000   -2.761E+02    5.2251601E+06    1.4263356E+04    4.2253511E+04    5.0612536E+06   -1.4263339E+04    5.2251601E+06
    2.52   900.000   -2.766E+02    5.2149788E+06    1.4968332E+04    4.2844325E+04    5.0559943E+06   -1.4968316E+04    5.2149788E+06
    2.53   900.000   -2.770E+02    5.2080685E+06    1.5694393E+04    4.3191017E+04    5.0552077E+06   -1.5694379E+04    5.2080685E+06
    2.54   900.000   -2.775E+02    5.2047258E+06    1.6435295E+04    4.3307123E+04    5.0592776E+06   -1.6435281E+04    5.2047259E+06
    2.55   900.000   -2.780E+02    5.2051603E+06    1.7182036E+04    4.3208571E+04    5.0684894E+06   -1.7182023E+04    5.2051603E+06
    2.56   900.000   -2.784E+02    5.2094930E+06    1.7923506E+04    4.2915034E+04    5.0830223E+06   -1.7923494E+04    5.2094930E+06
    2.57   900.000   -2.789E+02    5.2177584E+06    1.8647419E+04    4.2450358E+04    5.1029455E+06   -1.8647407E+04    5.2177584E+06
    2.58   900.000   -2.794E+02    5.2299082E+06    1.9341421E+04    4.1841864E+04    5.1282169E+06   -1.9341410E+04    5.2299082E+06
    2.59   900.000   -2.798E+02    5.2458143E+06    1.9994269E+04    4.1118542E+04    5.1586811E+06   -1.9994259E+04    5.2458143E+06
    2.60   900.000   -2.803E+02    5.2652707E+06    2.0596914E+04    4.0308444E+04    5.1940671E+06   -2.0596905E+04    5.2652707E+06
    2.61   900.000   -2.807E+02    5.2879936E+06    2.1143366E+04    3.9435700E+04    5.2339838E+06   -2.1143357E+04    5.2879936E+06
    2.62   900.000   -2.812E+02    5.3136179E+06    2.1631216E+04    3.8517706E+04    5.2779142E+06   -2.1631209E+04    5.3136179E+06
    2.63   900.000   -2.817E+02    5.3416937E+06    2.2061763E+04    3.7562948E+04    5.3252086E+06   -2.2061756E+04    5.3416937E+06
    2.64   900.000   -2.821E+02    5.3716809E+06    2.2439699E+04    3.6569852E+04    5.3750786E+06   -2.2439693E+04    5.3716810E+06
    2.65   900.000   -2.826E+02    5.4029459E+06    2.2772416E+04    3.5526804E+04    5.4265943E+06   -2.2772410E+04    5.4029460E+06
    2.66   900.000   -2.830E+02    5.4347605E+06    2.3068995E+04    3.4413346E+04    5.4786864E+06   -2.3068991E+04    5.4347605E+06
    2.67   900.000   -2.835E+02    5.4663049E+06    2.3339019E+04    3.3202345E+04    5.5301546E+06   -2.3339016E+04    5.4663050E+06
    2.68   900.000   -2.840E+02    5.4966766E+06    2.3591327E+04    3.1862820E+04    5.5796856E+06   -2.3591323E+04    5.4966766E+06
    2.69   900.000   -2.844E+02    5.5249037E+06    2.3832853E+04    3.0363070E+04    5.6258794E+06   -2.3832851E+04    5.5249038E+06
    2.70   900.000   -2.849E+02    5.5499662E+06    2.4067676E+04    2.8673746E+04    5.6672847E+06   -2.4067674E+04    5.5499662E+06
    2.71   900.000   -2.854E+02    5.5708212E+06    2.4296346E+04    2.6770589E+04    5.7024435E+06   -2.4296345E+04    5.5708213E+06
    2.72   900.000   -2.858E+02    5.5864349E+06    2.4515565E+04    2.4636607E+04    5.7299417E+06   -2.4515565E+04    5.5864349E+06
    2.73   900.000   -2.863E+02    5.5958178E+06    2.4718219E+04    2.2263585E+04    5.7484645E+06   -2.4718220E+04    5.5958178E+06
    2.74   900.000   -2.868E+02    5.5980634E+06    2.4893763E+04    1.9652893E+04    5.7568529E+06   -2.4893765E+04    5.5980635E+06
    2.75   900.000   -2.873E+02    5.5923878E+06    2.5028911E+04    1.6815612E+04    5.7541574E+06   -2.5028913E+04    5.5923878E+06
    2.76   900.000   -2.877E+02    5.5781675E+06    2.5108565E+04    1.3772048E+04    5.7396872E+06   -2.5108568E+04    5.5781675E+06
    2.77   900.000   -2.882E+02    5.5549741E+06    2.5116915E+04    1.0550744E+04    5.7130475E+06   -2.5116919E+04    5.5549741E+06
    2.78   900.000   -2.887E+02    5.5226024E+06    2.5038609E+04    7.1870886E+03    5.6741658E+06   -2.5038613E+04    5.5226024E+06
    2.79   900.000   -2.892E+02    5.4810898E+06    2.4859899E+04    3.7216716E+03    5.6233021E+06   -2.4859904E+04    5.4810898E+06
    2.80   900.000   -2.896E+02    5.4307246E+06    2.4569691E+04    1.9850759E+02    5.5610428E+06   -2.4569697E+04    5.4307246E+06
    2.81   900.000   -2.901E+02    5.3720432E+06    2.4160394E+04   -3.3367192E+03    5.4882791E+06   -2.4160400E+04    5.3720432E+06
    2.82   900.000   -2.906E+02    5.3058152E+06    2.3628517E+04   -6.8382635E+03    5.4061710E+06   -2.3628523E+04    5.3058152E+06
    2.83   900.000   -2.911E+02    5.2330171E+06    2.2974980E+04   -1.0261666E+04    5.3161001E+06   -2.2974987E+04    5.2330171E+06
    2.84   900.000   -2.916E+02    5.1547978E+06    2.2205112E+04   -1.3564762E+04    5.2196142E+06   -2.2205119E+04    5.1547978E+06
    2.85   900.000   -2.920E+02    5.0724367E+06    2.1328355E+04   -1.6708311E+04    5.1183696E+06   -2.1328362E+04    5.0724367E+06
    2.86   900.000   -2.925E+02    4.9872989E+06    2.0357706E+04   -1.9656272E+04    5.0140726E+06   -2.0357714E+04    4.9872989E+06
    2.87   900.000   -2.930E+02    4.9007901E+06    1.9308956E+04   -2.2375763E+04    4.9084262E+06   -1.9308964E+04    4.9007901E+06
    2.88   900.000   -2.935E+02    4.8143137E+06    1.8199773E+04   -2.4836805E+04    4.8030824E+06   -1.8199781E+04    4.8143137E+06
    2.89   900.000   -2.940E+02    4.7292323E+06    1.7048723E+04   -2.7011949E+04    4.6996027E+06   -1.7048732E+04    4.7292323E+06
    2.90   900.000   -2.945E+02    4.6468353E+06    1.5874289E+04   -2.8875905E+04    4.5994273E+06   -1.5874298E+04    4.6468353E+06
    2.91   900.000   -2.949E+02    4.5683130E+06    1.4693960E+04   -3.0405273E+04    4.5038522E+06   -1.4693968E+04    4.5683130E+06
    2.92   900.000   -2.954E+02    4.4947373E+06    1.3523462E+04   -3.1578466E+04    4.4140138E+06   -1.3523471E+04    4.4947373E+06
    2.93   900.000   -2.959E+02    4.4270480E+06    1.2376192E+04   -3.2375908E+04    4.3308795E+06   -1.2376201E+04    4.4270481E+06
    2.94   900.000   -2.964E+02    4.3660449E+06    1.1262880E+04   -3.2780531E+04    4.2552430E+06   -1.1262890E+04    4.3660450E+06
    2.95   900.000   -2.969E+02    4.3123831E+06    1.0191523E+04   -3.2778603E+04    4.1877247E+06   -1.0191533E+04    4.3123831E+06
    2.96   900.000   -2.974E+02    4.2665720E+06    9.1675545E+03   -3.2360821E+04    4.1287739E+06   -9.1675649E+03    4.2665720E+06
    2.97   900.000   -2.979E+02    4.2289771E+06    8.1942432E+03   -3.1523585E+04    4.0786755E+06   -8.1942539E+03    4.2289771E+06
    2.98   900.000   -2.984E+02    4.1998231E+06    7.2732306E+03   -3.0270309E+04    4.0375582E+06   -7.2732417E+03    4.1998231E+06
    2.99   900.000   -2.989E+02    4.1791993E+06    6.4051497E+03   -2.8612548E+04    4.0054050E+06   -6.4051611E+03    4.1791993E+06
    3.00   900.000   -2.994E+02    4.1670658E+06    5.5902280E+03   -2.6570759E+04    3.9820662E+06   -5.5902398E+03    4.1670658E+06
    3.01   900.000   -2.998E+02    4.1632617E+06    4.8288059E+03   -2.4174473E+04    3.9672732E+06   -4.8288181E+03    4.1632617E+06
    3.02   900.000   -3.003E+02    4.1675136E+06    4.1217095E+03   -2.1461740E+04    3.9606543E+06   -4.1217220E+03    4.1675137E+06
    3.03   900.000   -3.008E+02    4.1794454E+06    3.4704482E+03   -1.8477799E+04    3.9617492E+06   -3.4704612E+03    4.1794454E+06
    3.04   900.000   -3.013E+02    4.1985880E+06    2.8772325E+03   -1.5273020E+04    3.9700250E+06   -2.8772459E+03    4.1985881E+06
    3.05   900.000   -3.018E+02    4.2243899E+06    2.3448260E+03   -1.1900289E+04    3.9848891E+06   -2.3448398E+03    4.2243900E+06
    3.06   900.000   -3.023E+02    4.2562272E+06    1.8762651E+03   -8.4121079E+03    4.0057029E+06   -1.8762793E+03    4.2562272E+06
    3.07   900.000   -3.028E+02    4.2934140E+06    1.4744846E+03   -4.8577192E+03    4.0317913E+06   -1.4744992E+03    4.2934141E+06
    3.08   900.000   -3.033E+02    4.3352131E+06    1.1418880E+03   -1.2806239E+03    4.0624531E+06   -1.1419030E+03    4.3352131E+06
    3.09   900.000   -3.038E+02    4.3808470E+06    8.7990417E+02    2.2832076E+03    4.0969685E+06   -8.7991955E+02    4.3808470E+06
    3.10   900.000   -3.043E+02    4.4295101E+06    6.8856665E+02    5.8061858E+03    4.1346074E+06   -6.8858243E+02    4.4295101E+06
    3.11   900.000   -3.048E+02    4.4803825E+06    5.6615560E+02    9.2688853E+03    4.1746372E+06   -5.6617176E+02    4.4803826E+06
    3.12   900.000   -3.053E+02    4.5326449E+06    5.0893794E+02    1.2658766E+04    4.2163322E+06   -5.0895448E+02    4.5326449E+06
    3.13   900.000   -3.058E+02    4.5854946E+06    5.1104062E+02    1.5967979E+04    4.2589841E+06   -5.1105755E+02    4.5854947E+06
    3.14   900.000   -3.063E+02    4.6381630E+06    5.6448197E+02    1.9190514E+04    4.3019136E+06   -5.6449930E+02    4.6381630E+06
    3.15   900.000   -3.068E+02    4.6899315E+06    6.5937251E+02    2.2319071E+04    4.3444832E+06   -6.5939026E+02    4.6899316E+06
    3.16   900.000   -3.073E+02    4.7401470E+06    7.8427736E+02    2.5342043E+04    4.3861095E+06   -7.8429556E+02    4.7401470E+06
    3.17   900.000   -3.078E+02    4.7882333E+06    9.2671234E+02    2.8241041E+04    4.4262749E+06   -9.2673099E+02    4.7882333E+06
    3.18   900.000   -3.083E+02    4.8336997E+06    1.0737286E+03    3.0989301E+04    4.4645363E+06   -1.0737478E+03    4.8336998E+06
    3.19   900.000   -3.087E+02    4.8761443E+06    1.2125308E+03    3.3551214E+04    4.5005312E+06   -1.2125505E+03    4.8761443E+06
    3.20   900.000   -3.092E+02    4.9152521E+06    1.3310717E+03    3.5883094E+04    4.5339800E+06   -1.3310919E+03    4.9152521E+06
    3.21   900.000   -3.097E+02    4.9507901E+06    1.4185731E+03    3.7935129E+04    4.5646848E+06   -1.4185938E+03    4.9507901E+06
    3.22   900.000   -3.102E+02    4.9825982E+06    1.4659357E+03    3.9654322E+04    4.5925246E+06   -1.4659569E+03    4.9825982E+06
    3.23   900.000   -3.106E+02    5.0105793E+06    1.4660126E+03    4.0988099E+04    4.6174486E+06   -1.4660343E+03    5.0105793E+06
    3.24   900.000   -3.111E+02    5.0346886E+06    1.4137372E+03    4.1888198E+04    4.6394680E+06   -1.4137593E+03    5.0346886E+06
    3.25   900.000   -3.116E+02    5.0549252E+06    1.3061064E+03    4.2314395E+04    4.6586475E+06   -1.3061289E+03    5.0549252E+06
    3.26   900.000   -3.120E+02    5.0713251E+06    1.1420336E+03    4.2237674E+04    4.6750975E+06   -1.1420565E+03    5.0713251E+06
    3.27   900.000   -3.125E+02    5.0839577E+06    9.2209440E+02    4.1642497E+04    4.6889677E+06   -9.2211750E+02    5.0839577E+06
    3.28   900.000   -3.129E+02    5.0929246E+06    6.4819956E+02    4.0527933E+04    4.7004413E+06   -6.4822278E+02    5.0929246E+06
    3.29   900.000   -3.133E+02    5.0983596E+06    3.2323962E+02    3.8907555E+04    4.7097312E+06   -3.2326283E+02    5.0983596E+06
    3.30   900.000   -3.138E+02    5.1004301E+06   -4.9251556E+01    3.6808150E+04    4.7170751E+06    4.9228471E+01    5.1004301E+06
    3.31   900.000   -3.142E+02    5.0993372E+06   -4.6536731E+02    3.4267410E+04    4.7227314E+06    4.6534448E+02    5.0993372E+06
    3.32   900.000   -3.146E+02    5.0953135E+06   -9.2099673E+02    3.1330924E+04    4.7269722E+06    9.2097428E+02    5.0953135E+06
    3.33   900.000   -3.150E+02    5.0886189E+06   -1.4118724E+03    2.8048828E+04    4.7300762E+06    1.4118504E+03    5.0886189E+06
    3.34   900.000   -3.154E+02    5.0795320E+06   -1.9335007E+03    2.4472535E+04    4.7323174E+06    1.9334794E+03    5.0795320E+06
    3.35   900.000   -3.158E+02    5.0683403E+06   -2.4809998E+03    2.0651927E+04    4.7339537E+06    2.4809792E+03    5.0683403E+06
    3.36   900.000   -3.162E+02    5.0553272E+06   -3.0488854E+03    1.6633330E+04    4.7352138E+06    3.0488657E+03    5.0553272E+06
    3.37   900.000   -3.166E+02    5.0407589E+06   -3.6308529E+03    1.2458473E+04    4.7362848E+06    3.6308340E+03    5.0407589E+06
    3.38   900.000   -3.170E+02    5.0248727E+06   -4.2195986E+03    8.1644993E+03    4.7373006E+06    4.2195806E+03    5.0248727E+06
    3.39   900.000   -3.174E+02    5.0078663E+06   -4.8067143E+03    3.7849478E+03    4.7383338E+06    4.8066973E+03    5.0078663E+06
    3.40   900.000   -3.177E+02    4.9898913E+06   -5.3826728E+03   -6.4851850E+02    4.7393900E+06    5.3826567E+03    4.9898913E+06
    3.41   900.000   -3.181E+02    4.9710497E+06   -5.9369087E+03   -5.1039701E+03    4.7404061E+06    5.9368936E+03    4.9710497E+06
    3.42   900.000   -3.184E+02    4.9513941E+06   -6.4579916E+03   -9.5470580E+03    4.7412516E+06    6.4579774E+03    4.9513942E+06
    3.43   900.000   -3.188E+02    4.9309317E+06   -6.9338856E+03   -1.3939268E+04    4.7417318E+06    6.9338723E+03    4.9309317E+06
    3.44   900.000   -3.191E+02    4.9096299E+06   -7.3522934E+03   -1.8236954E+04    4.7415930E+06    7.3522810E+03    4.9096299E+06
    3.45   900.000   -3.195E+02    4.8874241E+06   -7.7010837E+03   -2.2391426E+04    4.7405275E+06    7.7010721E+03    4.8874241E+06
    3.46   900.000   -3.198E+02    4.8642267E+06   -7.9688029E+03   -2.6350214E+04    4.7381797E+06    7.9687921E+03    4.8642267E+06
    3.47   900.000   -3.201E+02    4.8399348E+06   -8.1452621E+03   -3.0059467E+04    4.7341506E+06    8.1452520E+03    4.8399348E+06
    3.48   900.000   -3.204E+02    4.8144387E+06   -8.2221750E+03   -3.3467274E+04    4.7280039E+06    8.2221657E+03    4.8144387E+06
    3.49   900.000   -3.208E+02    4.7876279E+06   -8.1938028E+03   -3.6527544E+04    4.7192730E+06    8.1937942E+03    4.7876279E+06
    3.50   900.000   -3.211E+02    4.7593971E+06   -8.0575409E+03   -3.9203977E+04    4.7074703E+06    8.0575329E+03    4.7593971E+06
    3.51   900.000   -3.214E+02    4.7296501E+06   -7.8143698E+03   -4.1473636E+04    4.6921011E+06    7.8143626E+03    4.7296501E+06
    3.52   900.000   -3.217E+02    4.6983032E+06   -7.4690924E+03   -4.3329658E+04    4.6726809E+06    7.4690859E+03    4.6983031E+06
    3.53   900.000   -3.220E+02    4.6652874E+06   -7.0302918E+03   -4.4782736E+04    4.6487585E+06    7.0302861E+03    4.6652874E+06
    3.54   900.000   -3.223E+02    4.6305512E+06   -6.5099767E+03   -4.5861162E+04    4.6199424E+06    6.5099718E+03    4.6305512E+06
    3.55   900.000   -3.226E+02    4.5940620E+06   -5.9229143E+03   -4.6609408E+04    4.5859302E+06    5.9229102E+03    4.5940619E+06
    3.56   900.000   -3.229E+02    4.5558091E+06   -5.2856969E+03   -4.7085383E+04    4.5465374E+06    5.2856936E+03    4.5558091E+06
    3.57   900.000   -3.232E+02    4.5158067E+06   -4.6156225E+03   -4.7356642E+04    4.5017237E+06    4.6156201E+03    4.5158067E+06
    3.58   900.000   -3.235E+02    4.4740966E+06   -3.9294960E+03   -4.7495963E+04    4.4516123E+06    3.9294945E+03    4.4740966E+06
    3.59   900.000   -3.238E+02    4.4307518E+06   -3.2424685E+03   -4.7576694E+04    4.3965010E+06    3.2424679E+03    4.4307517E+06
    3.60   900.000   -3.241E+02    4.3858790E+06   -2.5670293E+03   -4.7668298E+04    4.3368618E+06    2.5670295E+03    4.3858790E+06
    3.61   900.000   -3.244E+02    4.3396213E+06   -1.9122451E+03   -4.7832445E+04    4.2733286E+06    1.9122461E+03    4.3396213E+06
    3.62   900.000   -3.247E+02    4.2921593E+06   -1.2833137E+03   -4.8119903E+04    4.2066751E+06    1.2833153E+03    4.2921593E+06
    3.63   900.000   -3.250E+02    4.2437114E+06   -6.8146479E+02   -4.8568368E+04    4.1377831E+06    6.8146703E+02    4.2437114E+06
    3.64   900.000   -3.252E+02    4.1945334E+06   -1.0420543E+02   -4.9201281E+04    4.0676058E+06    1.0420814E+02    4.1945334E+06
    3.65   900.000   -3.255E+02    4.1449165E+06    4.5412604E+02   -5.0027567E+04    3.9971291E+06   -4.5412300E+02    4.1449165E+06
    3.66   900.000   -3.258E+02    4.0951852E+06    1.0015607E+03   -5.1042158E+04    3.9273353E+06   -1.0015575E+03    4.0951852E+06
    3.67   900.000   -3.261E+02    4.0456949E+06    1.5475371E+03   -5.2227156E+04    3.8591716E+06   -1.5475339E+03    4.0456949E+06
    3.68   900.000   -3.264E+02    3.9968288E+06    2.1018702E+03   -5.3553444E+04    3.7935254E+06   -2.1018672E+03    3.9968288E+06
    3.69   900.000   -3.267E+02    3.9489951E+06    2.6737456E+03   -5.4982604E+04    3.7312084E+06   -2.6737430E+03    3.9489951E+06
    3.70   900.000   -3.270E+02    3.9026246E+06    3.2708255E+03   -5.6469037E+04    3.6729486E+06   -3.2708236E+03    3.9026246E+06
    3.71   900.000   -3.273E+02    3.8581675E+06    3.8985370E+03   -5.7962234E+04    3.6193891E+06   -3.8985359E+03    3.8581675E+06
    3.72   900.000   -3.276E+02    3.8160903E+06    4.5595922E+03   -5.9409167E+04    3.5710924E+06   -4.5595922E+03    3.8160903E+06
    3.73   900.000   -3.279E+02    3.7768714E+06    5.2537634E+03   -6.0756802E+04    3.5285471E+06   -5.2537647E+03    3.7768714E+06
    3.74   900.000   -3.282E+02    3.7409966E+06    5.9779111E+03   -6.1954726E+04    3.4921772E+06   -5.9779139E+03    3.7409966E+06
    3.75   900.000   -3.285E+02    3.7089515E+06    6.7262389E+03   -6.2957801E+04    3.4623493E+06   -6.7262435E+03    3.7089515E+06
    3.76   900.000   -3.288E+02    3.6812141E+06    7.4907280E+03   -6.3728746E+04    3.4393800E+06   -7.4907344E+03    3.6812141E+06
    3.77   900.000   -3.291E+02    3.6582450E+06    8.2616914E+03   -6.4240435E+04    3.4235398E+06   -8.2616998E+03    3.6582449E+06
    3.78   900.000   -3.294E+02    3.6404775E+06    9.0283803E+03   -6.4477701E+04    3.4150572E+06   -9.0283908E+03    3.6404775E+06
    3.79   900.000   -3.297E+02    3.6283084E+06    9.7795752E+03   -6.4438402E+04    3.4141196E+06   -9.7795879E+03    3.6283083E+06
    3.80   900.000   -3.300E+02    3.6220899E+06    1.0504102E+04   -6.4133577E+04    3.4208764E+06   -1.0504117E+04    3.6220899E+06
    3.81   900.000   -3.303E+02    3.6221254E+06    1.1191225E+04   -6.3586604E+04    3.4354415E+06   -1.1191242E+04    3.6221254E+06
    3.82   900.000   -3.306E+02    3.6286683E+06    1.1830887E+04   -6.2831395E+04    3.4578985E+06   -1.1830907E+04    3.6286683E+06
    3.83   900.000   -3.309E+02    3.6419268E+06    1.2413787E+04   -6.1909832E+04    3.4883083E+06   -1.2413809E+04    3.6419268E+06
    3.84   900.000   -3.312E+02    3.6620733E+06    1.2931297E+04   -6.0868708E+04    3.5267192E+06   -1.2931321E+04    3.6620733E+06
    3.85   900.000   -3.315E+02    3.6892577E+06    1.3375254E+04   -5.9756567E+04    3.5731792E+06   -1.3375280E+04    3.6892577E+06
    3.86   900.000   -3.318E+02    3.7236255E+06    1.3737665E+04   -5.8620780E+04    3.6277496E+06   -1.3737694E+04    3.7236255E+06
    3.87   900.000   -3.321E+02    3.7653357E+06    1.4010382E+04   -5.7505134E+04    3.6905186E+06   -1.4010412E+04    3.7653356E+06
    3.88   900.000   -3.324E+02    3.8145793E+06    1.4184800E+04   -5.6448102E+04    3.7616128E+06   -1.4184832E+04    3.8145792E+06
    3.89   900.000   -3.327E+02    3.8715943E+06    1.4251657E+04   -5.5481753E+04    3.8412049E+06   -1.4251691E+04    3.8715943E+06
    3.90   900.000   -3.331E+02    3.9366762E+06    1.4200974E+04   -5.4631176E+04    3.9295160E+06   -1.4201009E+04    3.9366762E+06
    3.91   900.000   -3.334E+02    4.0101806E+06    1.4022190E+04   -5.3914163E+04    4.0268114E+06   -1.4022226E+04    4.0101806E+06
    3.92   900.000   -3.337E+02    4.0925196E+06    1.3704519E+04   -5.3340922E+04    4.1333878E+06   -1.3704556E+04    4.0925196E+06
    3.93   900.000   -3.340E+02    4.1841490E+06    1.3237527E+04   -5.2913645E+04    4.2495536E+06   -1.3237565E+04    4.1841490E+06
    3.94   900.000   -3.343E+02    4.2855483E+06    1.2611912E+04   -5.2625892E+04    4.3756010E+06   -1.2611950E+04    4.2855482E+06
    3.95   900.000   -3.346E+02    4.3971932E+06    1.1820434E+04   -5.2461893E+04    4.5117717E+06   -1.1820473E+04    4.3971932E+06
    3.96   900.000   -3.350E+02    4.5195238E+06    1.0858942E+04   -5.2395983E+04    4.6582181E+06   -1.0858982E+04    4.5195238E+06
    3.97   900.000   -3.353E+02    4.6529072E+06    9.7273869E+03   -5.2392444E+04    4.8149603E+06   -9.7274264E+03    4.6529072E+06
    3.98   900.000   -3.356E+02    4.7975990E+06    8.4307495E+03   -5.2405999E+04    4.9818432E+06   -8.4307891E+03    4.7975989E+06
    3.99   900.000   -3.360E+02    4.9537029E+06    6.9797823E+03   -5.2383124E+04    5.1584944E+06   -6.9798219E+03    4.9537029E+06
    4.00   900.000   -3.363E+02    5.1211324E+06    5.3914822E+03   -5.2264228E+04    5.3442856E+06   -5.3915218E+03    5.1211324E+06
    4.01   900.000   -3.366E+02    5.2995733E+06    3.6892374E+03   -5.1986601E+04    5.5383019E+06   -3.6892770E+03    5.2995733E+06
    4.02   900.000   -3.370E+02    5.4884522E+06    1.9026134E+03   -5.1487948E+04    5.7393207E+06   -1.9026529E+03    5.4884521E+06
    4.03   900.000   -3.373E+02    5.6869101E+06    6.6771040E+01   -5.0710266E+04    5.9458035E+06   -6.6810485E+01    5.6869101E+06
    4.04   900.000   -3.377E+02    5.8937856E+06   -1.7784596E+03   -4.9603771E+04    6.1559042E+06    1.7784202E+03    5.8937855E+06
    4.05   900.000   -3.380E+02    6.1076079E+06   -3.5898097E+03   -4.8130629E+04    6.3674958E+06    3.5897705E+03    6.1076078E+06
    4.06   900.000   -3.384E+02    6.3266033E+06   -5.3220515E+03   -4.6268228E+04    6.5782166E+06    5.3220124E+03    6.3266033E+06
    4.07   900.000   -3.388E+02    6.5487161E+06   -6.9296676E+03   -4.4011800E+04    6.7855353E+06    6.9296286E+03    6.5487160E+06
    4.08   900.000   -3.391E+02    6.7716447E+06   -8.3686515E+03   -4.1376148E+04    6.9868332E+06    8.3686127E+03    6.7716446E+06
    4.09   900.000   -3.395E+02    6.9928938E+06   -9.5983799E+03   -3.8396335E+04    7.1794990E+06    9.5983413E+03    6.9928938E+06
    4.10   900.000   -3.399E+02    7.2098413E+06   -1.0583490E+04   -3.5127136E+04    7.3610311E+06    1.0583451E+04    7.2098413E+06
    4.11   900.000   -3.402E+02    7.4198170E+06   -1.1295682E+04   -3.1641174E+04    7.5291392E+06    1.1295644E+04    7.4198169E+06
    4.12   900.000   -3.406E+02    7.6201904E+06   -1.1715352E+04   -2.8025708E+04    7.6818389E+06    1.1715315E+04    7.6201904E+06
    4.13   900.000   -3.410E+02    7.8084639E+06   -1.1832929E+04   -2.4378195E+04    7.8175323E+06    1.1832892E+04    7.8084638E+06
    4.14   900.000   -3.414E+02    7.9823636E+06   -1.1649782E+04   -2.0800881E+04    7.9350675E+06    1.1649745E+04    7.9823635E+06
    4.15   900.000   -3.417E+02    8.1399253E+06   -1.1178576E+04   -1.7394820E+04    8.0337760E+06    1.1178540E+04    8.1399253E+06
    4.16   900.000   -3.421E+02    8.2795692E+06   -1.0442977E+04   -1.4253835E+04    8.1134833E+06    1.0442941E+04    8.2795691E+06
    4.17   900.000   -3.425E+02    8.4001574E+06   -9.4766487E+03   -1.1458980E+04    8.1744969E+06    9.4766135E+03    8.4001574E+06
    4.18   900.000   -3.429E+02    8.5010341E+06   -8.3215814E+03   -9.0740289E+03    8.2175725E+06    8.3215467E+03    8.5010341E+06
    4.19   900.000   -3.433E+02    8.5820423E+06   -7.0258482E+03   -7.1424136E+03    8.2438644E+06    7.0258142E+03    8.5820422E+06
    4.20   900.000   -3.437E+02    8.6435194E+06   -5.6409623E+03   -5.6858680E+03    8.2548639E+06    5.6409288E+03    8.6435193E+06
    4.21   900.000   -3.440E+02    8.6862716E+06   -4.2190565E+03   -4.7048318E+03    8.2523315E+06    4.2190235E+03    8.6862715E+06
    4.22   900.000   -3.444E+02    8.7115283E+06   -2.8101280E+03   -4.1804754E+03    8.2382267E+06    2.8100955E+03    8.7115283E+06
    4.23   900.000   -3.448E+02    8.7208816E+06   -1.4595750E+03   -4.0780411E+03    8.2146385E+06    1.4595430E+03    8.7208815E+06
    4.24   900.000   -3.452E+02    8.7162126E+06   -2.0621219E+02   -4.3510843E+03    8.1837183E+06    2.0618054E+02    8.7162125E+06
    4.25   900.000   -3.456E+02    8.6996113E+06    9.1910883E+02   -4.9461541E+03    8.1476164E+06   -9.1914014E+02    8.6996113E+06
    4.26   900.000   -3.460E+02    8.6732918E+06    1.8942187E+03   -5.8074619E+03    8.1084232E+06   -1.8942497E+03    8.6732918E+06
    4.27   900.000   -3.463E+02    8.6395083E+06    2.7057022E+03   -6.8811482E+03    8.0681134E+06   -2.7057331E+03    8.6395082E+06
    4.28   900.000   -3.467E+02    8.6004749E+06    3.3483959E+03   -8.1188509E+03    8.0284970E+06   -3.3484266E+03    8.6004749E+06
    4.29   900.000   -3.471E+02    8.5582926E+06    3.8244247E+03   -9.4803773E+03    7.9911745E+06   -3.8244553E+03    8.5582925E+06
    4.30   900.000   -3.475E+02    8.5148845E+06    4.1419224E+03   -1.0935385E+04    7.9574998E+06   -4.1419531E+03    8.5148845E+06
    4.31   900.000   -3.478E+02    8.4719434E+06    4.3135825E+03   -1.2464062E+04    7.9285517E+06   -4.3136132E+03    8.4719433E+06
    4.32   900.000   -3.482E+02    8.4308912E+06    4.3551834E+03   -1.4056853E+04    7.9051150E+06   -4.3552143E+03    8.4308911E+06
    4.33   900.000   -3.486E+02    8.3928530E+06    4.2842096E+03   -1.5713347E+04    7.8876731E+06   -4.2842407E+03    8.3928530E+06
    4.34   900.000   -3.490E+02    8.3586454E+06    4.1186576E+03   -1.7440430E+04    7.8764123E+06   -4.1186891E+03    8.3586454E+06
    4.35   900.000   -3.493E+02    8.3287795E+06    3.8760811E+03   -1.9249892E+04    7.8712383E+06   -3.8761129E+03    8.3287794E+06
    4.36   900.000   -3.497E+02    8.3034781E+06    3.5728914E+03   -2.1155646E+04    7.8718041E+06   -3.5729237E+03    8.3034780E+06
    4.37   900.000   -3.501E+02    8.2827063E+06    3.2238981E+03   -2.3170794E+04    7.8775482E+06   -3.2239310E+03    8.2827063E+06
    4.38   900.000   -3.505E+02    8.2662129E+06    2.8420494E+03   -2.5304780E+04    7.8877403E+06   -2.8420831E+03    8.2662129E+06
    4.39   900.000   -3.509E+02    8.2535798E+06    2.4383259E+03   -2.7560917E+04    7.9015334E+06   -2.4383603E+03    8.2535798E+06
    4.40   900.000   -3.512E+02    8.2442776E+06    2.0217403E+03   -2.9934562E+04    7.9180183E+06   -2.0217755E+03    8.2442776E+06
    4.41   900.000   -3.516E+02    8.2377217E+06    1.5994106E+03   -3.2412182E+04    7.9362769E+06   -1.5994466E+03    8.2377217E+06
    4.42   900.000   -3.520E+02    8.2333270E+06    1.1766880E+03   -3.4971454E+04    7.9554336E+06   -1.1767250E+03    8.2333270E+06
    4.43   900.000   -3.524E+02    8.2305566E+06    7.5733553E+02   -3.7582427E+04    7.9746987E+06   -7.5737342E+02    8.2305566E+06
    4.44   900.000   -3.528E+02    8.2289609E+06    3.4375674E+02   -4.0209578E+04    7.9934042E+06   -3.4379553E+02    8.2289609E+06
    4.45   900.000   -3.531E+02    8.2282062E+06   -6.2727528E+01   -4.2814476E+04    8.0110286E+06    6.2687880E+01    8.2282062E+06
    4.46   900.000   -3.535E+02    8.2280899E+06   -4.6157249E+02   -4.5358625E+04    8.0272102E+06    4.6153204E+02    8.2280899E+06
    4.47   900.000   -3.539E+02    8.2285421E+06   -8.5270298E+02   -4.7806042E+04    8.0417480E+06    8.5266181E+02    8.2285421E+06
    4.48   900.000   -3.543E+02    8.2296157E+06   -1.2362488E+03   -5.0125204E+04    8.0545916E+06    1.2362071E+03    8.2296156E+06
    4.49   900.000   -3.547E+02    8.2314645E+06   -1.6123631E+03   -5.2290112E+04    8.0658200E+06    1.6123208E+03    8.2314644E+06
    4.50   900.000   -3.551E+02    8.2343141E+06   -1.9811508E+03   -5.4280481E+04    8.0756127E+06    1.9811082E+03    8.2343141E+06
    4.51   900.000   -3.555E+02    8.2384270E+06   -2.3427128E+03   -5.6081202E+04    8.0842141E+06    2.3426700E+03    8.2384270E+06
    4.52   900.000   -3.559E+02    8.2440655E+06   -2.6972808E+03   -5.7681410E+04    8.0918950E+06    2.6972380E+03    8.2440655E+06
    4.53   900.000   -3.563E+02    8.2514554E+06   -3.0453969E+03   -5.9073521E+04    8.0989142E+06    3.0453544E+03    8.2514554E+06
    4.54   900.000   -3.567E+02    8.2607527E+06   -3.3880782E+03   -6.0252565E+04    8.1054818E+06    3.3880361E+03    8.2607527E+06
    4.55   900.000   -3.571E+02    8.2720149E+06   -3.7269095E+03   -6.1215979E+04    8.1117282E+06    3.7268680E+03    8.2720149E+06
    4.56   900.000   -3.576E+02    8.2851781E+06   -4.0640250E+03   -6.1963908E+04    8.1176798E+06    4.0639844E+03    8.2851780E+06
    4.57   900.000   -3.580E+02    8.3000397E+06   -4.4019641E+03   -6.2499852E+04    8.1232427E+06    4.4019246E+03    8.3000397E+06
    4.58   900.000   -3.584E+02    8.3162483E+06   -4.7434141E+03   -6.2831433E+04    8.1281943E+06    4.7433760E+03    8.3162483E+06
    4.59   900.000   -3.588E+02    8.3332982E+06   -5.0908776E+03   -6.2970995E+04    8.1321838E+06    5.0908411E+03    8.3332982E+06
    4.60   900.000   -3.592E+02    8.3505310E+06   -5.4463123E+03   -6.2935808E+04    8.1347402E+06    5.4462777E+03    8.3505310E+06
    4.61   900.000   -3.597E+02    8.3671434E+06   -5.8107965E+03   -6.2747704E+04    8.1352861E+06    5.8107640E+03    8.3671434E+06
    4.62   900.000   -3.601E+02    8.3822016E+06   -6.1842615E+03   -6.2432091E+04    8.1331582E+06    6.1842314E+03    8.3822016E+06
    4.63   900.000   -3.605E+02    8.3946636E+06   -6.5653204E+03   -6.2016408E+04    8.1276315E+06    6.5652929E+03    8.3946636E+06
    4.64   900.000   -3.609E+02    8.4034091E+06   -6.9512034E+03   -6.1528119E+04    8.1179471E+06    6.9511789E+03    8.4034091E+06
    4.65   900.000   -3.614E+02    8.4072767E+06   -7.3377961E+03   -6.0992475E+04    8.1033426E+06    7.3377746E+03    8.4072767E+06
    4.66   900.000   -3.618E+02    8.4051086E+06   -7.7197655E+03   -6.0430241E+04    8.0830840E+06    7.7197473E+03    8.4051086E+06
    4.67   900.000   -3.622E+02    8.3957983E+06   -8.0907592E+03   -5.9855631E+04    8.0564981E+06    8.0907445E+03    8.3957983E+06
    4.68   900.000   -3.626E+02    8.3783416E+06   -8.4436576E+03   -5.9274667E+04    8.0230032E+06    8.4436465E+03    8.3783416E+06
    4.69   900.000   -3.631E+02    8.3518844E+06   -8.7708706E+03   -5.8684135E+04    7.9821389E+06    8.7708631E+03    8.3518844E+06
    4.70   900.000   -3.635E+02    8.3157658E+06   -9.0646674E+03   -5.8071257E+04    7.9335907E+06    9.0646635E+03    8.3157658E+06
    4.71   900.000   -3.639E+02    8.2695520E+06   -9.3175371E+03   -5.7414120E+04    7.8772103E+06    9.3175369E+03    8.2695520E+06
    4.72   900.000   -3.644E+02    8.2130584E+06   -9.5225725E+03   -5.6682839E+04    7.8130282E+06    9.5225759E+03    8.2130583E+06
    4.73   900.000   -3.648E+02    8.1463584E+06   -9.6738685E+03   -5.5841351E+04    7.7412590E+06    9.6738754E+03    8.1463584E+06
    4.74   900.000   -3.652E+02    8.0697787E+06   -9.7669227E+03   -5.4849698E+04    7.6622969E+06    9.7669329E+03    8.0697787E+06
    4.75   900.000   -3.656E+02    7.9838808E+06   -9.7990149E+03   -5.3666611E+04    7.5767031E+06    9.7990283E+03    7.9838807E+06
    4.76   900.000   -3.661E+02    7.8894304E+06   -9.7695429E+03   -5.2252234E+04    7.4851829E+06    9.7695593E+03    7.8894304E+06
    4.77   900.000   -3.665E+02    7.7873582E+06   -9.6802811E+03   -5.0570816E+04    7.3885556E+06    9.6803001E+03    7.7873581E+06
    4.78   900.000   -3.669E+02    7.6787121E+06   -9.5355325E+03   -4.8593267E+04    7.2877176E+06    9.5355539E+03    7.6787121E+06
    4.79   900.000   -3.673E+02    7.5646071E+06   -9.3421460E+03   -4.6299457E+04    7.1836006E+06    9.3421695E+03    7.5646071E+06
    4.80   900.000   -3.677E+02    7.4461729E+06   -9.1093760E+03   -4.3680200E+04    7.0771281E+06    9.1094013E+03    7.4461729E+06
    4.81   900.000   -3.681E+02    7.3245048E+06   -8.8485737E+03   -4.0738835E+04    6.9691730E+06    8.8486005E+03    7.3245047E+06
    4.82   900.000   -3.685E+02    7.2006190E+06   -8.5727091E+03   -3.7492316E+04    6.8605181E+06    8.5727371E+03    7.2006189E+06
    4.83   900.000   -3.689E+02    7.0754167E+06   -8.2957368E+03   -3.3971713E+04    6.7518239E+06    8.2957657E+03    7.0754167E+06
    4.84   900.000   -3.693E+02    6.9496578E+06   -8.0318331E+03   -3.0222016E+04    6.6436040E+06    8.0318625E+03    6.9496578E+06
    4.85   900.000   -3.697E+02    6.8239459E+06   -7.7945460E+03   -2.6301149E+04    6.5362112E+06    7.7945757E+03    6.8239459E+06
    4.86   900.000   -3.701E+02    6.6987254E+06   -7.5959148E+03   -2.2278161E+04    6.4298346E+06    7.5959445E+03    6.6987253E+06
    4.87   900.000   -3.704E+02    6.5742894E+06   -7.4456279E+03   -1.8230609E+04    6.3245065E+06    7.4456573E+03    6.5742894E+06
    4.88   900.000   -3.708E+02    6.4507971E+06   -7.3502926E+03   -1.4241271E+04    6.2201199E+06    7.3503214E+03    6.4507971E+06
    4.89   900.000   -3.712E+02    6.3282972E+06   -7.3128948E+03   -1.0394394E+04    6.1164534E+06    7.3129228E+03    6.3282972E+06
    4.90   900.000   -3.715E+02    6.2067552E+06   -7.3325081E+03   -6.7717736E+03    6.0132003E+06    7.3325351E+03    6.2067552E+06
    4.91   900.000   -3.719E+02    6.0860802E+06   -7.4043000E+03   -3.4489866E+03    5.9100011E+06    7.4043256E+03    6.0860801E+06
    4.92   900.000   -3.723E+02    5.9661487E+06   -7.5198460E+03   -4.9208602E+02    5.8064742E+06    7.5198702E+03    5.9661486E+06
    4.93   900.000   -3.726E+02    5.8468233E+06   -7.6677398E+03    2.0450203E+03    5.7022433E+06    7.6677623E+03    5.8468233E+06
    4.94   900.000   -3.730E+02    5.7279640E+06   -7.8344478E+03    4.1223846E+03    5.5969591E+06    7.8344684E+03    5.7279639E+06
    4.95   900.000   -3.733E+02    5.6094322E+06   -8.0053391E+03    5.7150365E+03    5.4903137E+06    8.0053576E+03    5.6094322E+06
    4.96   900.000   -3.737E+02    5.4910888E+06   -8.1657999E+03    6.8133107E+03    5.3820483E+06    8.1658163E+03    5.4910888E+06
    4.97   900.000   -3.740E+02    5.3727869E+06   -8.3023377E+03    7.4226502E+03    5.2719535E+06    8.3023519E+03    5.3727868E+06
    4.98   900.000   -3.743E+02    5.2543619E+06   -8.4035818E+03    7.5630493E+03    5.1598647E+06    8.4035936E+03    5.2543618E+06
    4.99   900.000   -3.746E+02    5.1356222E+06   -8.4611010E+03    7.2682518E+03    5.0456533E+06    8.4611105E+03    5.1356221E+06
    5.00   900.000   -3.750E+02    5.0163411E+06   -8.4699780E+03    6.5847415E+03    4.9292174E+06    8.4699852E+03    5.0163411E+06
