# 0 [Electrical conductivity in SI units, i.e. in 1/Ohm/m]
# Mu(eV) T(K) N(#carriers) sigma_xx sigma_xy sigma_xz sigma_yy sigma_yz sigma_zz
# T(K) = 300.00   Npoints =     441   V(cm^3) =  3.848E-22
   -4.20   300.000    9.856E+00    7.4840186E+05    2.1333317E-08    2.1409660E-08    7.4840186E+05    5.4092791E-08    7.4884759E+05
   -4.19   300.000    9.833E+00    7.9861550E+05    2.4984002E-08    2.5091182E-08    7.9861550E+05    6.3432749E-08    7.9905064E+05
   -4.18   300.000    9.805E+00    8.4866748E+05    2.9617705E-08    2.9755517E-08    8.4866748E+05    7.5082818E-08    8.4909220E+05
   -4.17   300.000    9.773E+00    8.9869917E+05    3.5495450E-08    3.5660140E-08    8.9869917E+05    8.9654019E-08    8.9911426E+05
   -4.16   300.000    9.734E+00    9.4869438E+05    4.2822623E-08    4.3009295E-08    9.4869438E+05    1.0764820E-07    9.4910085E+05
   -4.15   300.000    9.688E+00    9.9821895E+05    5.1673240E-08    5.1878380E-08    9.9821895E+05    1.2927049E-07    9.9861766E+05
   -4.14   300.000    9.634E+00    1.0462446E+06    6.1953513E-08    6.2176281E-08    1.0462446E+06    1.5432825E-07    1.0466361E+06
   -4.13   300.000    9.570E+00    1.0911164E+06    7.3432241E-08    7.3673955E-08    1.0911164E+06    1.8228029E-07    1.0915008E+06
   -4.12   300.000    9.496E+00    1.1306049E+06    8.5816089E-08    8.6078313E-08    1.1306049E+06    2.1239152E-07    1.1309830E+06
   -4.11   300.000    9.411E+00    1.1620903E+06    9.8803961E-08    9.9086330E-08    1.1620903E+06    2.4385401E-07    1.1624635E+06
   -4.10   300.000    9.316E+00    1.1829979E+06    1.1206543E-07    1.1236448E-07    1.1829979E+06    2.7575940E-07    1.1833696E+06
   -4.09   300.000    9.209E+00    1.1914139E+06    1.2514811E-07    1.2545780E-07    1.1914139E+06    3.0693527E-07    1.1917885E+06
   -4.08   300.000    9.092E+00    1.1866246E+06    1.3736875E-07    1.3768219E-07    1.1866246E+06    3.3575361E-07    1.1870074E+06
   -4.07   300.000    8.965E+00    1.1694480E+06    1.4775708E-07    1.4806824E-07    1.1694480E+06    3.6003734E-07    1.1698450E+06
   -4.06   300.000    8.829E+00    1.1424095E+06    1.5512265E-07    1.5542724E-07    1.1424095E+06    3.7719973E-07    1.1428272E+06
   -4.05   300.000    8.686E+00    1.1097385E+06    1.5829371E-07    1.5858932E-07    1.1097385E+06    3.8472929E-07    1.1101835E+06
   -4.04   300.000    8.539E+00    1.0770276E+06    1.5649242E-07    1.5677852E-07    1.0770276E+06    3.8097139E-07    1.0775055E+06
   -4.03   300.000    8.389E+00    1.0504921E+06    1.4968940E-07    1.4996751E-07    1.0504921E+06    3.6589095E-07    1.0510051E+06
   -4.02   300.000    8.241E+00    1.0360013E+06    1.3873783E-07    1.3901146E-07    1.0360013E+06    3.4138442E-07    1.0365456E+06
   -4.01   300.000    8.097E+00    1.0381564E+06    1.2520032E-07    1.2547458E-07    1.0381564E+06    3.1093892E-07    1.0387201E+06
   -4.00   300.000    7.959E+00    1.0596395E+06    1.1096326E-07    1.1124400E-07    1.0596395E+06    2.7882049E-07    1.0602021E+06
   -3.99   300.000    7.826E+00    1.1009612E+06    9.7819028E-08    9.8112004E-08    1.1009612E+06    2.4915664E-07    1.1014968E+06
   -3.98   300.000    7.699E+00    1.1606401E+06    8.7155978E-08    8.7465988E-08    1.1606401E+06    2.2521071E-07    1.1611235E+06
   -3.97   300.000    7.576E+00    1.2357249E+06    7.9812947E-08    8.0143054E-08    1.2357249E+06    2.0900053E-07    1.2361380E+06
   -3.96   300.000    7.455E+00    1.3224716E+06    7.6082980E-08    7.6433724E-08    1.3224716E+06    2.0126614E-07    1.3228070E+06
   -3.95   300.000    7.334E+00    1.4169726E+06    7.5802543E-08    7.6171240E-08    1.4169726E+06    2.0166401E-07    1.4172332E+06
   -3.94   300.000    7.210E+00    1.5155713E+06    7.8458823E-08    7.8839176E-08    1.5155713E+06    2.0903217E-07    1.5157666E+06
   -3.93   300.000    7.081E+00    1.6149779E+06    8.3289363E-08    8.3671619E-08    1.6149779E+06    2.2164338E-07    1.6151203E+06
   -3.92   300.000    6.948E+00    1.7121304E+06    8.9392034E-08    8.9763647E-08    1.7121304E+06    2.3745490E-07    1.7122320E+06
   -3.91   300.000    6.809E+00    1.8039588E+06    9.5863682E-08    9.6210307E-08    1.8039588E+06    2.5438434E-07    1.8040303E+06
   -3.90   300.000    6.664E+00    1.8872374E+06    1.0194184E-07    1.0224858E-07    1.8872374E+06    2.7058189E-07    1.8872871E+06
   -3.89   300.000    6.515E+00    1.9586716E+06    1.0709126E-07    1.0734418E-07    1.9586716E+06    2.8462295E-07    1.9587060E+06
   -3.88   300.000    6.363E+00    2.0152897E+06    1.1100782E-07    1.1119553E-07    2.0152897E+06    2.9558801E-07    2.0153133E+06
   -3.87   300.000    6.210E+00    2.0550676E+06    1.1357578E-07    1.1369073E-07    2.0550676E+06    3.0306629E-07    2.0550837E+06
   -3.86   300.000    6.058E+00    2.0775315E+06    1.1483031E-07    1.1486919E-07    2.0775315E+06    3.0711526E-07    2.0775425E+06
   -3.85   300.000    5.907E+00    2.0840041E+06    1.1492916E-07    1.1489247E-07    2.0840041E+06    3.0815138E-07    2.0840117E+06
   -3.84   300.000    5.760E+00    2.0773580E+06    1.1409473E-07    1.1398559E-07    2.0773580E+06    3.0673216E-07    2.0773632E+06
   -3.83   300.000    5.616E+00    2.0614239E+06    1.1251221E-07    1.1233509E-07    2.0614239E+06    3.0326862E-07    2.0614273E+06
   -3.82   300.000    5.476E+00    2.0402643E+06    1.1023642E-07    1.0999657E-07    2.0402643E+06    2.9781826E-07    2.0402667E+06
   -3.81   300.000    5.340E+00    2.0174344E+06    1.0718226E-07    1.0688584E-07    2.0174344E+06    2.9010712E-07    2.0174360E+06
   -3.80   300.000    5.210E+00    1.9953554E+06    1.0321173E-07    1.0286653E-07    1.9953554E+06    2.7976799E-07    1.9953565E+06
   -3.79   300.000    5.086E+00    1.9750072E+06    9.8249587E-08    9.7865409E-08    1.9750072E+06    2.6661491E-07    1.9750080E+06
   -3.78   300.000    4.969E+00    1.9560930E+06    9.2345908E-08    9.1934028E-08    1.9560930E+06    2.5077748E-07    1.9560935E+06
   -3.77   300.000    4.860E+00    1.9376345E+06    8.5663605E-08    8.5235273E-08    1.9376345E+06    2.3266713E-07    1.9376348E+06
   -3.76   300.000    4.759E+00    1.9187617E+06    7.8432710E-08    7.7997132E-08    1.9187617E+06    2.1287790E-07    1.9187619E+06
   -3.75   300.000    4.668E+00    1.8994008E+06    7.0921962E-08    7.0484646E-08    1.8994008E+06    1.9212929E-07    1.8994009E+06
   -3.74   300.000    4.585E+00    1.8806457E+06    6.3438293E-08    6.3000383E-08    1.8806457E+06    1.7126495E-07    1.8806458E+06
   -3.73   300.000    4.511E+00    1.8646765E+06    5.6325741E-08    5.5884254E-08    1.8646765E+06    1.5123306E-07    1.8646765E+06
   -3.72   300.000    4.445E+00    1.8541868E+06    4.9932723E-08    4.9481203E-08    1.8541868E+06    1.3297576E-07    1.8541869E+06
   -3.71   300.000    4.387E+00    1.8515686E+06    4.4543134E-08    4.4072461E-08    1.8515686E+06    1.1723027E-07    1.8515686E+06
   -3.70   300.000    4.336E+00    1.8583049E+06    4.0298298E-08    3.9797864E-08    1.8583049E+06    1.0432691E-07    1.8583049E+06
   -3.69   300.000    4.291E+00    1.8747620E+06    3.7154371E-08    3.6613930E-08    1.8747620E+06    9.4105930E-08    1.8747620E+06
   -3.68   300.000    4.251E+00    1.9002363E+06    3.4908418E-08    3.4320358E-08    1.9002363E+06    8.6028847E-08    1.9002363E+06
   -3.67   300.000    4.215E+00    1.9331484E+06    3.3287513E-08    3.2648540E-08    1.9331484E+06    7.9443826E-08    1.9331484E+06
   -3.66   300.000    4.183E+00    1.9713962E+06    3.2053945E-08    3.1365238E-08    1.9713962E+06    7.3859740E-08    1.9713962E+06
   -3.65   300.000    4.153E+00    2.0128485E+06    3.1066986E-08    3.0333006E-08    2.0128485E+06    6.9073549E-08    2.0128485E+06
   -3.64   300.000    4.126E+00    2.0559243E+06    3.0272046E-08    2.9499045E-08    2.0559243E+06    6.5100149E-08    2.0559243E+06
   -3.63   300.000    4.100E+00    2.1000749E+06    2.9639037E-08    2.8834088E-08    2.1000749E+06    6.1987519E-08    2.1000749E+06
   -3.62   300.000    4.076E+00    2.1458034E+06    2.9101915E-08    2.8272391E-08    2.1458034E+06    5.9652403E-08    2.1458034E+06
   -3.61   300.000    4.054E+00    2.1941032E+06    2.8544853E-08    2.7697844E-08    2.1941032E+06    5.7834656E-08    2.1941032E+06
   -3.60   300.000    4.032E+00    2.2457276E+06    2.7846431E-08    2.6987847E-08    2.2457276E+06    5.6193446E-08    2.2457276E+06
   -3.59   300.000    4.011E+00    2.3006644E+06    2.6948753E-08    2.6082507E-08    2.3006644E+06    5.4478242E-08    2.3006644E+06
   -3.58   300.000    3.990E+00    2.3577725E+06    2.5898405E-08    2.5026395E-08    2.3577725E+06    5.2651432E-08    2.3577725E+06
   -3.57   300.000    3.970E+00    2.4148076E+06    2.4831507E-08    2.3954740E-08    2.4148076E+06    5.0882362E-08    2.4148076E+06
   -3.56   300.000    3.951E+00    2.4694737E+06    2.3916799E-08    2.3036926E-08    2.4694737E+06    4.9437162E-08    2.4694737E+06
   -3.55   300.000    3.931E+00    2.5212145E+06    2.3292079E-08    2.2412050E-08    2.5212145E+06    4.8549413E-08    2.5212145E+06
   -3.54   300.000    3.912E+00    2.5720323E+06    2.3024949E-08    2.2148165E-08    2.5720323E+06    4.8338102E-08    2.5720323E+06
   -3.53   300.000    3.892E+00    2.6251964E+06    2.3107603E-08    2.2236228E-08    2.6251964E+06    4.8786360E-08    2.6251964E+06
   -3.52   300.000    3.873E+00    2.6829733E+06    2.3474693E-08    2.2608451E-08    2.6829733E+06    4.9760436E-08    2.6829733E+06
   -3.51   300.000    3.853E+00    2.7454241E+06    2.4030412E-08    2.3166621E-08    2.7454241E+06    5.1051871E-08    2.7454241E+06
   -3.50   300.000    3.833E+00    2.8107693E+06    2.4680071E-08    2.3814631E-08    2.8107693E+06    5.2443194E-08    2.8107693E+06
   -3.49   300.000    3.813E+00    2.8761664E+06    2.5361838E-08    2.4490395E-08    2.8761664E+06    5.3790939E-08    2.8761664E+06
   -3.48   300.000    3.792E+00    2.9381146E+06    2.6064694E-08    2.5183500E-08    2.9381146E+06    5.5088491E-08    2.9381146E+06
   -3.47   300.000    3.771E+00    2.9931100E+06    2.6821604E-08    2.5927971E-08    2.9931100E+06    5.6462891E-08    2.9931100E+06
   -3.46   300.000    3.749E+00    3.0391444E+06    2.7686755E-08    2.6779121E-08    3.0391444E+06    5.8101512E-08    3.0391444E+06
   -3.45   300.000    3.727E+00    3.0771058E+06    2.8712564E-08    2.7790228E-08    3.0771058E+06    6.0149280E-08    3.0771058E+06
   -3.44   300.000    3.704E+00    3.1105236E+06    2.9926544E-08    2.8989326E-08    3.1105236E+06    6.2616165E-08    3.1105236E+06
   -3.43   300.000    3.681E+00    3.1435594E+06    3.1302956E-08    3.0351060E-08    3.1435594E+06    6.5319207E-08    3.1435594E+06
   -3.42   300.000    3.657E+00    3.1788487E+06    3.2742615E-08    3.1776790E-08    3.1788487E+06    6.7890965E-08    3.1788487E+06
   -3.41   300.000    3.632E+00    3.2166930E+06    3.4085652E-08    3.3107406E-08    3.2166930E+06    6.9882734E-08    3.2166930E+06
   -3.40   300.000    3.608E+00    3.2555835E+06    3.5163577E-08    3.4174988E-08    3.2555835E+06    7.0938508E-08    3.2555835E+06
   -3.39   300.000    3.582E+00    3.2931086E+06    3.5864163E-08    3.4867267E-08    3.2931086E+06    7.0950714E-08    3.2931086E+06
   -3.38   300.000    3.556E+00    3.3267890E+06    3.6168108E-08    3.5164329E-08    3.3267890E+06    7.0103408E-08    3.3267890E+06
   -3.37   300.000    3.529E+00    3.3550191E+06    3.6136332E-08    3.5126147E-08    3.3550191E+06    6.8780150E-08    3.3550191E+06
   -3.36   300.000    3.501E+00    3.3779802E+06    3.5866369E-08    3.4848820E-08    3.3779802E+06    6.7402089E-08    3.3779802E+06
   -3.35   300.000    3.473E+00    3.3979701E+06    3.5456730E-08    3.4428554E-08    3.3979701E+06    6.6291470E-08    3.3979701E+06
   -3.34   300.000    3.444E+00    3.4188427E+06    3.4993888E-08    3.3948825E-08    3.4188427E+06    6.5607252E-08    3.4188427E+06
   -3.33   300.000    3.414E+00    3.4446262E+06    3.4540740E-08    3.3469773E-08    3.4446262E+06    6.5332336E-08    3.4446262E+06
   -3.32   300.000    3.384E+00    3.4777509E+06    3.4110728E-08    3.3003278E-08    3.4777509E+06    6.5281203E-08    3.4777509E+06
   -3.31   300.000    3.353E+00    3.5178585E+06    3.3648610E-08    3.2494063E-08    3.5178585E+06    6.5138278E-08    3.5178585E+06
   -3.30   300.000    3.321E+00    3.5620934E+06    3.3050674E-08    3.1839967E-08    3.5620934E+06    6.4556481E-08    3.5620934E+06
   -3.29   300.000    3.289E+00    3.6065860E+06    3.2223334E-08    3.0950777E-08    3.6065860E+06    6.3299000E-08    3.6065860E+06
   -3.28   300.000    3.257E+00    3.6477746E+06    3.1140369E-08    2.9805447E-08    3.6477746E+06    6.1346541E-08    3.6477746E+06
   -3.27   300.000    3.225E+00    3.6828089E+06    2.9860737E-08    2.8468953E-08    3.6828089E+06    5.8899478E-08    3.6828089E+06
   -3.26   300.000    3.193E+00    3.7097571E+06    2.8503428E-08    2.7065644E-08    3.7097571E+06    5.6279533E-08    3.7097571E+06
   -3.25   300.000    3.160E+00    3.7285212E+06    2.7203911E-08    2.5734578E-08    3.7285212E+06    5.3799967E-08    3.7285212E+06
   -3.24   300.000    3.128E+00    3.7418241E+06    2.6077363E-08    2.4592201E-08    3.7418241E+06    5.1671910E-08    3.7418241E+06
   -3.23   300.000    3.096E+00    3.7545884E+06    2.5196599E-08    2.3710130E-08    3.7545884E+06    4.9969201E-08    3.7545884E+06
   -3.22   300.000    3.065E+00    3.7713942E+06    2.4581921E-08    2.3105520E-08    3.7713942E+06    4.8641540E-08    3.7713942E+06
   -3.21   300.000    3.033E+00    3.7939712E+06    2.4204862E-08    2.2746087E-08    3.7939712E+06    4.7562064E-08    3.7939712E+06
   -3.20   300.000    3.002E+00    3.8206980E+06    2.4008872E-08    2.2572136E-08    3.8206980E+06    4.6592232E-08    3.8206980E+06
   -3.19   300.000    2.971E+00    3.8478620E+06    2.3936980E-08    2.2524797E-08    3.8478620E+06    4.5636970E-08    3.8478620E+06
   -3.18   300.000    2.941E+00    3.8711154E+06    2.3947514E-08    2.2561429E-08    3.8711154E+06    4.4667211E-08    3.8711154E+06
   -3.17   300.000    2.911E+00    3.8864451E+06    2.4009281E-08    2.2650200E-08    3.8864451E+06    4.3706993E-08    3.8864451E+06
   -3.16   300.000    2.881E+00    3.8910130E+06    2.4087425E-08    2.2755604E-08    3.8910130E+06    4.2801425E-08    3.8910130E+06
   -3.15   300.000    2.851E+00    3.8839812E+06    2.4139465E-08    2.2834418E-08    3.8839812E+06    4.1988395E-08    3.8839812E+06
   -3.14   300.000    2.822E+00    3.8668418E+06    2.4128261E-08    2.2848566E-08    3.8668418E+06    4.1287298E-08    3.8668418E+06
   -3.13   300.000    2.793E+00    3.8428973E+06    2.4037775E-08    2.2780882E-08    3.8428973E+06    4.0701023E-08    3.8428973E+06
   -3.12   300.000    2.765E+00    3.8162025E+06    2.3874425E-08    2.2636782E-08    3.8162025E+06    4.0222722E-08    3.8162025E+06
   -3.11   300.000    2.736E+00    3.7905888E+06    2.3657685E-08    2.2435215E-08    3.7905888E+06    3.9849128E-08    3.7905888E+06
   -3.10   300.000    2.707E+00    3.7689310E+06    2.3418918E-08    2.2207410E-08    3.7689310E+06    3.9603752E-08    3.7689310E+06
   -3.09   300.000    2.679E+00    3.7525194E+06    2.3211279E-08    2.2006362E-08    3.7525194E+06    3.9555073E-08    3.7525194E+06
   -3.08   300.000    2.649E+00    3.7408257E+06    2.3107287E-08    2.1904252E-08    3.7408257E+06    3.9802227E-08    3.7408258E+06
   -3.07   300.000    2.619E+00    3.7321037E+06    2.3166835E-08    2.1960878E-08    3.7321037E+06    4.0421155E-08    3.7321038E+06
   -3.06   300.000    2.588E+00    3.7246393E+06    2.3394830E-08    2.2182019E-08    3.7246393E+06    4.1404381E-08    3.7246394E+06
   -3.05   300.000    2.556E+00    3.7179325E+06    2.3725713E-08    2.2504213E-08    3.7179325E+06    4.2642828E-08    3.7179326E+06
   -3.04   300.000    2.522E+00    3.7132452E+06    2.4048450E-08    2.2818896E-08    3.7132452E+06    4.3967621E-08    3.7132453E+06
   -3.03   300.000    2.485E+00    3.7134922E+06    2.4253767E-08    2.3018032E-08    3.7134922E+06    4.5225769E-08    3.7134924E+06
   -3.02   300.000    2.446E+00    3.7226496E+06    2.4278393E-08    2.3037344E-08    3.7226496E+06    4.6346544E-08    3.7226498E+06
   -3.01   300.000    2.405E+00    3.7445098E+06    2.4129926E-08    2.2881808E-08    3.7445098E+06    4.7368157E-08    3.7445103E+06
   -3.00   300.000    2.359E+00    3.7807785E+06    2.3884158E-08    2.2624859E-08    3.7807785E+06    4.8418689E-08    3.7807791E+06
   -2.99   300.000    2.311E+00    3.8295818E+06    2.3657081E-08    2.2381930E-08    3.8295818E+06    4.9667999E-08    3.8295827E+06
   -2.98   300.000    2.259E+00    3.8857019E+06    2.3565493E-08    2.2271177E-08    3.8857019E+06    5.1275886E-08    3.8857032E+06
   -2.97   300.000    2.203E+00    3.9423504E+06    2.3692309E-08    2.2377989E-08    3.9423504E+06    5.3351895E-08    3.9423524E+06
   -2.96   300.000    2.144E+00    3.9930601E+06    2.4065569E-08    2.2733253E-08    3.9930601E+06    5.5929299E-08    3.9930629E+06
   -2.95   300.000    2.081E+00    4.0327728E+06    2.4653791E-08    2.3308187E-08    4.0327728E+06    5.8954005E-08    4.0327770E+06
   -2.94   300.000    2.014E+00    4.0582318E+06    2.5378655E-08    2.4026239E-08    4.0582318E+06    6.2293501E-08    4.0582380E+06
   -2.93   300.000    1.943E+00    4.0681383E+06    2.6142875E-08    2.4789982E-08    4.0681383E+06    6.5766997E-08    4.0681474E+06
   -2.92   300.000    1.867E+00    4.0632452E+06    2.6861772E-08    2.5512301E-08    4.0632452E+06    6.9182182E-08    4.0632585E+06
   -2.91   300.000    1.786E+00    4.0460501E+06    2.7480399E-08    2.6134347E-08    4.0460501E+06    7.2354113E-08    4.0460696E+06
   -2.90   300.000    1.701E+00    4.0197726E+06    2.7966812E-08    2.6620564E-08    4.0197726E+06    7.5096774E-08    4.0198011E+06
   -2.89   300.000    1.612E+00    3.9870095E+06    2.8292067E-08    2.6940283E-08    3.9870095E+06    7.7209345E-08    3.9870511E+06
   -2.88   300.000    1.519E+00    3.9488919E+06    2.8418601E-08    2.7056619E-08    3.9488919E+06    7.8492003E-08    3.9489524E+06
   -2.87   300.000    1.424E+00    3.9050927E+06    2.8308096E-08    2.6933638E-08    3.9050927E+06    7.8797993E-08    3.9051801E+06
   -2.86   300.000    1.328E+00    3.8543454E+06    2.7938443E-08    2.6552089E-08    3.8543454E+06    7.8085536E-08    3.8544706E+06
   -2.85   300.000    1.234E+00    3.7950384E+06    2.7310825E-08    2.5915531E-08    3.7950384E+06    7.6423792E-08    3.7952157E+06
   -2.84   300.000    1.143E+00    3.7257733E+06    2.6440995E-08    2.5041210E-08    3.7257733E+06    7.3944734E-08    3.7260207E+06
   -2.83   300.000    1.057E+00    3.6459835E+06    2.5347211E-08    2.3947921E-08    3.6459835E+06    7.0779781E-08    3.6463218E+06
   -2.82   300.000    9.768E-01    3.5566537E+06    2.4049085E-08    2.2654764E-08    3.5566537E+06    6.7028760E-08    3.5571052E+06
   -2.81   300.000    9.027E-01    3.4607485E+06    2.2577107E-08    2.1190620E-08    3.4607485E+06    6.2774811E-08    3.4613343E+06
   -2.80   300.000    8.351E-01    3.3626327E+06    2.0981359E-08    1.9603305E-08    3.3626327E+06    5.8121373E-08    3.3633693E+06
   -2.79   300.000    7.739E-01    3.2664564E+06    1.9330080E-08    1.7959192E-08    3.2664564E+06    5.3217072E-08    3.2673538E+06
   -2.78   300.000    7.187E-01    3.1745844E+06    1.7697405E-08    1.6331965E-08    3.1745844E+06    4.8249102E-08    3.1756452E+06
   -2.77   300.000    6.689E-01    3.0871558E+06    1.6146562E-08    1.4785988E-08    3.0871558E+06    4.3409411E-08    3.0883767E+06
   -2.76   300.000    6.240E-01    3.0027868E+06    1.4717318E-08    1.3363038E-08    3.0027868E+06    3.8855079E-08    3.0041603E+06
   -2.75   300.000    5.833E-01    2.9196547E+06    1.3423649E-08    1.2079054E-08    2.9196547E+06    3.4685434E-08    2.9211705E+06
   -2.74   300.000    5.464E-01    2.8363308E+06    1.2260929E-08    1.0930646E-08    2.8363308E+06    3.0944208E-08    2.8379765E+06
   -2.73   300.000    5.126E-01    2.7521551E+06    1.1215994E-08    9.9047555E-09    2.7521551E+06    2.7636981E-08    2.7539164E+06
   -2.72   300.000    4.816E-01    2.6672220E+06    1.0273732E-08    8.9851724E-09    2.6672220E+06    2.4748446E-08    2.6690841E+06
   -2.71   300.000    4.531E-01    2.5821887E+06    9.4199098E-09    8.1558265E-09    2.5821887E+06    2.2253115E-08    2.5841386E+06
   -2.70   300.000    4.265E-01    2.4980625E+06    8.6443083E-09    7.4048165E-09    2.4980625E+06    2.0122428E-08    2.5000911E+06
   -2.69   300.000    4.018E-01    2.4159489E+06    7.9454490E-09    6.7298561E-09    2.4159489E+06    1.8330473E-08    2.4180522E+06
   -2.68   300.000    3.787E-01    2.3367154E+06    7.3320771E-09    6.1398054E-09    2.3367154E+06    1.6854757E-08    2.3388939E+06
   -2.67   300.000    3.571E-01    2.2605936E+06    6.8161062E-09    5.6471388E-09    2.2605936E+06    1.5668184E-08    2.2628497E+06
   -2.66   300.000    3.367E-01    2.1868295E+06    6.3992628E-09    5.2541693E-09    2.1868295E+06    1.4726317E-08    2.1891626E+06
   -2.65   300.000    3.174E-01    2.1136646E+06    6.0633590E-09    4.9432659E-09    2.1136646E+06    1.3961924E-08    2.1160689E+06
   -2.64   300.000    2.991E-01    2.0389811E+06    5.7734647E-09    4.6800694E-09    2.0389811E+06    1.3296310E-08    2.0414468E+06
   -2.63   300.000    2.818E-01    1.9615040E+06    5.4931100E-09    4.4284669E-09    1.9615040E+06    1.2663254E-08    1.9640213E+06
   -2.62   300.000    2.654E-01    1.8817588E+06    5.1994213E-09    4.1653446E-09    1.8817588E+06    1.2028443E-08    1.8843211E+06
   -2.61   300.000    2.498E-01    1.8018969E+06    4.8860759E-09    3.8834983E-09    1.8018969E+06    1.1389176E-08    1.8045010E+06
   -2.60   300.000    2.349E-01    1.7243852E+06    4.5546600E-09    3.5835453E-09    1.7243852E+06    1.0755996E-08    1.7270296E+06
   -2.59   300.000    2.207E-01    1.6505569E+06    4.2064826E-09    3.2665459E-09    1.6505569E+06    1.0133858E-08    1.6532396E+06
   -2.58   300.000    2.072E-01    1.5800723E+06    3.8438154E-09    2.9356535E-09    1.5800723E+06    9.5184253E-09    1.5827896E+06
   -2.57   300.000    1.943E-01    1.5114922E+06    3.4763357E-09    2.6022157E-09    1.5114922E+06    8.9050318E-09    1.5142374E+06
   -2.56   300.000    1.819E-01    1.4433101E+06    3.1221816E-09    2.2859961E-09    1.4433101E+06    8.2957669E-09    1.4460740E+06
   -2.55   300.000    1.701E-01    1.3746491E+06    2.8004424E-09    2.0068918E-09    1.3746491E+06    7.6974329E-09    1.3774202E+06
   -2.54   300.000    1.588E-01    1.3053518E+06    2.5219241E-09    1.7753517E-09    1.3053518E+06    7.1158719E-09    1.3081184E+06
   -2.53   300.000    1.479E-01    1.2357311E+06    2.2858492E-09    1.5891841E-09    1.2357311E+06    6.5532501E-09    1.2384842E+06
   -2.52   300.000    1.375E-01    1.1663133E+06    2.0835655E-09    1.4377210E-09    1.1663133E+06    6.0087991E-09    1.1690505E+06
   -2.51   300.000    1.276E-01    1.0976627E+06    1.9050196E-09    1.3089343E-09    1.0976627E+06    5.4813026E-09    1.1003913E+06
   -2.50   300.000    1.181E-01    1.0302398E+06    1.7435330E-09    1.1947722E-09    1.0302398E+06    4.9722515E-09    1.0329772E+06
   -2.49   300.000    1.089E-01    9.6429942E+05    1.5971320E-09    1.0926632E-09    9.6429942E+05    4.4878918E-09    9.6706723E+05
   -2.48   300.000    1.002E-01    8.9987058E+05    1.4669566E-09    1.0036755E-09    8.9987058E+05    4.0381364E-09    9.0268638E+05
   -2.47   300.000    9.179E-02    8.3680470E+05    1.3541615E-09    9.2904185E-10    8.3680470E+05    3.6327226E-09    8.3967479E+05
   -2.46   300.000    8.376E-02    7.7484974E+05    1.2571314E-09    8.6719999E-10    7.7484974E+05    3.2776526E-09    7.7776635E+05
   -2.45   300.000    7.607E-02    7.1375122E+05    1.1707322E-09    8.1312699E-10    7.1375122E+05    2.9742182E-09    7.1669325E+05
   -2.44   300.000    6.872E-02    6.5338297E+05    1.0879424E-09    7.6011782E-10    6.5338297E+05    2.7197716E-09    6.5631982E+05
   -2.43   300.000    6.171E-02    5.9384732E+05    1.0024443E-09    7.0239477E-10    5.9384732E+05    2.5081560E-09    5.9674568E+05
   -2.42   300.000    5.502E-02    5.3545179E+05    9.1042487E-10    6.3678760E-10    5.3545179E+05    2.3295218E-09    5.3828244E+05
   -2.41   300.000    4.866E-02    4.7855972E+05    8.1100612E-10    5.6300839E-10    4.7855972E+05    2.1711135E-09    4.8130016E+05
   -2.40   300.000    4.264E-02    4.2346036E+05    7.0582093E-10    4.8310006E-10    4.2346036E+05    2.0199852E-09    4.2609213E+05
   -2.39   300.000    3.696E-02    3.7039897E+05    5.9836961E-10    4.0070248E-10    3.7039897E+05    1.8664785E-09    3.7290312E+05
   -2.38   300.000    3.163E-02    3.1970607E+05    4.9331639E-10    3.2033386E-10    3.1970607E+05    1.7062062E-09    3.2206097E+05
   -2.37   300.000    2.669E-02    2.7184264E+05    3.9556123E-10    2.4655735E-10    2.7184264E+05    1.5392782E-09    2.7402515E+05
   -2.36   300.000    2.215E-02    2.2731318E+05    3.0909983E-10    1.8298612E-10    2.2731318E+05    1.3677199E-09    2.2930130E+05
   -2.35   300.000    1.804E-02    1.8657105E+05    2.3611388E-10    1.3145757E-10    1.8657105E+05    1.1934850E-09    1.8834621E+05
   -2.34   300.000    1.440E-02    1.5000391E+05    1.7680937E-10    9.1863016E-11    1.5000391E+05    1.0185673E-09    1.5155264E+05
   -2.33   300.000    1.124E-02    1.1794318E+05    1.3000854E-10    6.2713094E-11    1.1794318E+05    8.4640042E-10    1.1925885E+05
   -2.32   300.000    8.587E-03    9.0616797E+04    9.3952760E-11    4.1971003E-11    9.0616797E+04    6.8254056E-10    9.1701770E+04
   -2.31   300.000    6.416E-03    6.8058894E+04    6.6813118E-11    2.7641633E-11    6.8058894E+04    5.3356397E-10    6.8925979E+04
   -2.30   300.000    4.698E-03    5.0049415E+04    4.6861241E-11    1.8006479E-11    5.0049415E+04    4.0492805E-10    5.0721187E+04
   -2.29   300.000    3.380E-03    3.6129114E+04    3.2514710E-11    1.1673262E-11    3.6129114E+04    2.9934589E-10    3.6634848E+04
   -2.28   300.000    2.396E-03    2.5679889E+04    2.2387088E-11    7.5740787E-12    2.5679889E+04    2.1651397E-10    2.6051265E+04
   -2.27   300.000    1.678E-03    1.8029190E+04    1.5335139E-11    4.9386989E-12    1.8029190E+04    1.5392156E-10    1.8296392E+04
   -2.26   300.000    1.166E-03    1.2539019E+04    1.0470538E-11    3.2428537E-12    1.2539019E+04    1.0799835E-10    1.2728219E+04
   -2.25   300.000    8.042E-04    8.6599620E+03    7.1348778E-12    2.1449792E-12    8.6599620E+03    7.5048367E-11    8.7923243E+03
   -2.24   300.000    5.522E-04    5.9507873E+03    4.8560580E-12    1.4282278E-12    5.9507873E+03    5.1790450E-11    6.0425722E+03
   -2.23   300.000    3.779E-04    4.0745133E+03    3.3027412E-12    9.5624187E-13    4.0745133E+03    3.5565412E-11    4.1377588E+03
   -2.22   300.000    2.580E-04    2.7828297E+03    2.2454268E-12    6.4307575E-13    2.7828297E+03    2.4340140E-11    2.8262156E+03
   -2.21   300.000    1.758E-04    1.8973231E+03    1.5263997E-12    4.3405573E-13    1.8973231E+03    1.6618917E-11    1.9269930E+03
   -2.20   300.000    1.197E-04    1.2920385E+03    1.0377882E-12    2.9398884E-13    1.2920385E+03    1.1329429E-11    1.3122849E+03
   -2.19   300.000    8.145E-05    8.7913173E+02    7.0603062E-13    1.9996494E-13    8.7913173E+02    7.7162221E-12    8.9292728E+02
   -2.18   300.000    5.538E-05    5.9785021E+02    4.8107026E-13    1.3693922E-13    5.9785021E+02    5.2533754E-12    6.0724071E+02
   -2.17   300.000    3.764E-05    4.0641882E+02    3.2891702E-13    9.4987502E-14    4.0641882E+02    3.5777719E-12    4.1280642E+02
   -2.16   300.000    2.558E-05    2.7622504E+02    2.2656081E-13    6.7578638E-14    2.7622504E+02    2.4402023E-12    2.8056796E+02
   -2.15   300.000    1.738E-05    1.8772477E+02    1.5851325E-13    5.0478540E-14    1.8772477E+02    1.6704764E-12    1.9067657E+02
   -2.14   300.000    1.180E-05    1.2759355E+02    1.1447358E-13    4.1058659E-14    1.2759355E+02    1.1529758E-12    1.2959938E+02
   -2.13   300.000    8.011E-06    8.6759953E+01    8.7773609E-14    3.7874334E-14    8.6759953E+01    8.0975851E-13    8.8122774E+01
   -2.12   300.000    5.433E-06    5.9055423E+01    7.4370025E-14    4.0435019E-14    5.9055423E+01    5.8903919E-13    5.9981270E+01
   -2.11   300.000    3.677E-06    4.0290888E+01    7.2232965E-14    4.9124909E-14    4.0290888E+01    4.5747654E-13    4.0919829E+01
   -2.10   300.000    2.478E-06    2.7627274E+01    8.1039013E-14    6.5258784E-14    2.7627274E+01    3.9518379E-13    2.8054502E+01
   -2.09   300.000    1.655E-06    1.9147761E+01    1.0212242E-13    9.1280107E-14    1.9147761E+01    3.9274419E-13    1.9437961E+01
   -2.08   300.000    1.082E-06    1.3568492E+01    1.3867732E-13    1.3113067E-13    1.3568492E+01    4.4979741E-13    1.3765609E+01
   -2.07   300.000    6.730E-07    1.0044561E+01    1.9624159E-13    1.9084747E-13    1.0044561E+01    5.7499080E-13    1.0178450E+01
   -2.06   300.000    3.659E-07    8.0422518E+00    2.8353575E-13    2.7947702E-13    8.0422518E+00    7.8729177E-13    8.1331931E+00
   -2.05   300.000    1.143E-07    7.2582772E+00    4.1378362E-13    4.1044548E-13    7.2582772E+00    1.1188616E-12    7.3200469E+00
   -2.04   300.000   -1.200E-07    7.5738761E+00    6.0671496E-13    6.0359179E-13    7.5738761E+00    1.6199259E-12    7.6158313E+00
   -2.03   300.000   -3.725E-07    9.0368279E+00    8.9155253E-13    8.8817141E-13    9.0368279E+00    2.3663792E-12    9.0653247E+00
   -2.02   300.000   -6.814E-07    1.1868670E+01    1.3114351E-12    1.3072843E-12    1.1868670E+01    3.4712716E-12    1.1888026E+01
   -2.01   300.000   -1.094E-06    1.6498197E+01    1.9299438E-12    1.9243957E-12    1.6498197E+01    5.1019114E-12    1.6511344E+01
   -2.00   300.000   -1.671E-06    2.3626273E+01    2.8407146E-12    2.8329310E-12    2.3626273E+01    7.5051586E-12    2.3635202E+01
   -1.99   300.000   -2.502E-06    3.4331687E+01    4.1815802E-12    4.1703873E-12    3.4331687E+01    1.1044708E-11    3.4337752E+01
   -1.98   300.000   -3.711E-06    5.0233881E+01    6.1553577E-12    6.1390712E-12    5.0233881E+01    1.6255935E-11    5.0238001E+01
   -1.97   300.000   -5.482E-06    7.3736761E+01    9.0603695E-12    9.0365471E-12    7.3736761E+01    2.3926463E-11    7.3739559E+01
   -1.96   300.000   -8.083E-06    1.0838955E+02    1.3335197E-11    1.3300283E-11    1.0838955E+02    3.5214296E-11    1.0839145E+02
   -1.95   300.000   -1.190E-05    1.5941730E+02    1.9624164E-11    1.9572987E-11    1.5941730E+02    5.1820709E-11    1.5941859E+02
   -1.94   300.000   -1.752E-05    2.3449690E+02    2.8872889E-11    2.8797949E-11    2.3449690E+02    7.6242472E-11    2.3449778E+02
   -1.93   300.000   -2.578E-05    3.4488660E+02    4.2467100E-11    4.2357587E-11    3.4488660E+02    1.1213826E-10    3.4488720E+02
   -1.92   300.000   -3.790E-05    5.0705940E+02    6.2433052E-11    6.2273541E-11    5.0705940E+02    1.6485757E-10    5.0705981E+02
   -1.91   300.000   -5.570E-05    7.4504411E+02    9.1724239E-11    9.1493054E-11    7.4504411E+02    2.4219716E-10    7.4504439E+02
   -1.90   300.000   -8.178E-05    1.0937363E+03    1.3462604E-10    1.3429343E-10    1.0937363E+03    3.5546820E-10    1.0937365E+03
   -1.89   300.000   -1.199E-04    1.6034891E+03    1.9731565E-10    1.9684228E-10    1.6034891E+03    5.2097233E-10    1.6034892E+03
   -1.88   300.000   -1.755E-04    2.3462885E+03    2.8861479E-10    2.8795176E-10    2.3462885E+03    7.6198454E-10    2.3462886E+03
   -1.87   300.000   -2.561E-04    3.4236771E+03    4.2095999E-10    4.2005281E-10    3.4236771E+03    1.1113076E-09    3.4236772E+03
   -1.86   300.000   -3.724E-04    4.9761646E+03    6.1157910E-10    6.1037992E-10    4.9761646E+03    1.6143699E-09    4.9761646E+03
   -1.85   300.000   -5.386E-04    7.1929599E+03    8.8379798E-10    8.8229114E-10    7.1929599E+03    2.3326737E-09    7.1929599E+03
   -1.84   300.000   -7.732E-04    1.0319342E+04    1.2683175E-09    1.2665603E-09    1.0319342E+04    3.3472061E-09    1.0319342E+04
   -1.83   300.000   -1.099E-03    1.4657101E+04    1.8042355E-09    1.8024010E-09    1.4657101E+04    4.7613047E-09    1.4657101E+04
   -1.82   300.000   -1.543E-03    2.0552370E+04    2.5395548E-09    2.5379253E-09    2.0552370E+04    6.7024788E-09    2.0552370E+04
   -1.81   300.000   -2.134E-03    2.8366966E+04    3.5307599E-09    3.5295773E-09    2.8366966E+04    9.3224053E-09    2.8366966E+04
   -1.80   300.000   -2.897E-03    3.8435807E+04    4.8404665E-09    4.8395437E-09    3.8435807E+04    1.2792827E-08    3.8435807E+04
   -1.79   300.000   -3.856E-03    5.1022218E+04    6.5312943E-09    6.5294457E-09    5.1022218E+04    1.7292491E-08    5.1022218E+04
   -1.78   300.000   -5.024E-03    6.6287939E+04    8.6543357E-09    8.6489977E-09    6.6287939E+04    2.2979462E-08    6.6287939E+04
   -1.77   300.000   -6.409E-03    8.4289416E+04    1.1232920E-08    1.1220554E-08    8.4289416E+04    2.9946513E-08    8.4289416E+04
   -1.76   300.000   -8.009E-03    1.0499949E+05    1.4244733E-08    1.4222286E-08    1.0499949E+05    3.8160880E-08    1.0499949E+05
   -1.75   300.000   -9.818E-03    1.2834329E+05    1.7604890E-08    1.7571645E-08    1.2834329E+05    4.7391117E-08    1.2834329E+05
   -1.74   300.000   -1.183E-02    1.5423344E+05    2.1152750E-08    2.1111027E-08    1.5423344E+05    5.7136753E-08    1.5423344E+05
   -1.73   300.000   -1.402E-02    1.8259029E+05    2.4652974E-08    2.4606551E-08    1.8259029E+05    6.6615334E-08    1.8259029E+05
   -1.72   300.000   -1.640E-02    2.1333525E+05    2.7832215E-08    2.7783226E-08    2.1333525E+05    7.4895628E-08    2.1333525E+05
   -1.71   300.000   -1.894E-02    2.4635640E+05    3.0466433E-08    3.0413167E-08    2.4635640E+05    8.1219957E-08    2.4635640E+05
   -1.70   300.000   -2.164E-02    2.8147261E+05    3.2495867E-08    3.2433190E-08    2.8147261E+05    8.5404761E-08    2.8147261E+05
   -1.69   300.000   -2.449E-02    3.1844140E+05    3.4101608E-08    3.4023190E-08    3.1844140E+05    8.8069899E-08    3.1844140E+05
   -1.68   300.000   -2.748E-02    3.5702882E+05    3.5683412E-08    3.5583483E-08    3.5702882E+05    9.0510922E-08    3.5702882E+05
   -1.67   300.000   -3.061E-02    3.9709542E+05    3.7734543E-08    3.7608017E-08    3.9709542E+05    9.4259418E-08    3.9709542E+05
   -1.66   300.000   -3.387E-02    4.3861801E+05    4.0659108E-08    4.0500788E-08    4.3861801E+05    1.0053051E-07    4.3861801E+05
   -1.65   300.000   -3.725E-02    4.8162956E+05    4.4596083E-08    4.4400081E-08    4.8162956E+05    1.0975201E-07    4.8162956E+05
   -1.64   300.000   -4.076E-02    5.2615638E+05    4.9319631E-08    4.9079355E-08    5.2615638E+05    1.2132933E-07    5.2615638E+05
   -1.63   300.000   -4.438E-02    5.7220579E+05    5.4276626E-08    5.3984927E-08    5.7220579E+05    1.3377057E-07    5.7220579E+05
   -1.62   300.000   -4.812E-02    6.1974661E+05    5.8773735E-08    5.8422871E-08    6.1974661E+05    1.4518989E-07    6.1974661E+05
   -1.61   300.000   -5.197E-02    6.6865012E+05    6.2236847E-08    6.1818653E-08    6.6865012E+05    1.5399062E-07    6.6865012E+05
   -1.60   300.000   -5.593E-02    7.1868772E+05    6.4407236E-08    6.3914273E-08    7.1868772E+05    1.5938512E-07    7.1868772E+05
   -1.59   300.000   -6.000E-02    7.6963461E+05    6.5389009E-08    6.4816815E-08    7.6963461E+05    1.6153782E-07    7.6963461E+05
   -1.58   300.000   -6.417E-02    8.2134884E+05    6.5561886E-08    6.4911712E-08    8.2134884E+05    1.6136264E-07    8.2134884E+05
   -1.57   300.000   -6.845E-02    8.7372164E+05    6.5412281E-08    6.4693705E-08    8.7372164E+05    1.6009187E-07    8.7372164E+05
   -1.56   300.000   -7.283E-02    9.2662305E+05    6.5348385E-08    6.4581056E-08    9.2662305E+05    1.5877597E-07    9.2662305E+05
   -1.55   300.000   -7.730E-02    9.8001597E+05    6.5594263E-08    6.4807247E-08    9.8001597E+05    1.5798068E-07    9.8001597E+05
   -1.54   300.000   -8.188E-02    1.0341351E+06    6.6216285E-08    6.5443438E-08    1.0341351E+06    1.5785349E-07    1.0341351E+06
   -1.53   300.000   -8.656E-02    1.0894405E+06    6.7219813E-08    6.6491487E-08    1.0894405E+06    1.5841016E-07    1.0894405E+06
   -1.52   300.000   -9.133E-02    1.1463454E+06    6.8615480E-08    6.7949632E-08    1.1463454E+06    1.5976303E-07    1.1463454E+06
   -1.51   300.000   -9.619E-02    1.2050658E+06    7.0429204E-08    6.9826140E-08    1.2050658E+06    1.6219607E-07    1.2050658E+06
   -1.50   300.000   -1.012E-01    1.2657035E+06    7.2689540E-08    7.2133001E-08    1.2657035E+06    1.6614512E-07    1.2657035E+06
   -1.49   300.000   -1.062E-01    1.3282140E+06    7.5422449E-08    7.4886971E-08    1.3282140E+06    1.7212707E-07    1.3282140E+06
   -1.48   300.000   -1.113E-01    1.3921158E+06    7.8677157E-08    7.8139198E-08    1.3921158E+06    1.8065966E-07    1.3921158E+06
   -1.47   300.000   -1.166E-01    1.4563849E+06    8.2580019E-08    8.2028450E-08    1.4563849E+06    1.9221270E-07    1.4563849E+06
   -1.46   300.000   -1.219E-01    1.5198975E+06    8.7339033E-08    8.6779764E-08    1.5198975E+06    2.0711308E-07    1.5198975E+06
   -1.45   300.000   -1.273E-01    1.5821291E+06    9.3112549E-08    9.2564530E-08    1.5821291E+06    2.2526869E-07    1.5821291E+06
   -1.44   300.000   -1.328E-01    1.6435514E+06    9.9789199E-08    9.9274791E-08    1.6435514E+06    2.4578946E-07    1.6435514E+06
   -1.43   300.000   -1.384E-01    1.7054424E+06    1.0686343E-07    1.0640026E-07    1.7054424E+06    2.6685583E-07    1.7054424E+06
   -1.42   300.000   -1.441E-01    1.7692115E+06    1.1355265E-07    1.1315181E-07    1.7692115E+06    2.8612514E-07    1.7692115E+06
   -1.41   300.000   -1.499E-01    1.8356701E+06    1.1910008E-07    1.1876903E-07    1.8356701E+06    3.0152957E-07    1.8356701E+06
   -1.40   300.000   -1.557E-01    1.9047351E+06    1.2304811E-07    1.2279246E-07    1.9047351E+06    3.1195364E-07    1.9047351E+06
   -1.39   300.000   -1.617E-01    1.9756448E+06    1.2533071E-07    1.2515140E-07    1.9756448E+06    3.1744131E-07    1.9756448E+06
   -1.38   300.000   -1.677E-01    2.0473561E+06    1.2622260E-07    1.2611233E-07    2.0473561E+06    3.1903312E-07    2.0473561E+06
   -1.37   300.000   -1.738E-01    2.1189029E+06    1.2623984E-07    1.2618549E-07    2.1189029E+06    3.1843839E-07    2.1189029E+06
   -1.36   300.000   -1.800E-01    2.1897375E+06    1.2599220E-07    1.2598509E-07    2.1897375E+06    3.1752367E-07    2.1897375E+06
   -1.35   300.000   -1.863E-01    2.2599944E+06    1.2595163E-07    1.2599830E-07    2.2599944E+06    3.1758171E-07    2.2599944E+06
   -1.34   300.000   -1.926E-01    2.3304289E+06    1.2620697E-07    1.2633184E-07    2.3304289E+06    3.1864722E-07    2.3304289E+06
   -1.33   300.000   -1.991E-01    2.4019105E+06    1.2639980E-07    1.2663741E-07    2.4019105E+06    3.1939718E-07    2.4019105E+06
   -1.32   300.000   -2.056E-01    2.4747845E+06    1.2598784E-07    1.2636946E-07    2.4747845E+06    3.1799146E-07    2.4747845E+06
   -1.31   300.000   -2.122E-01    2.5486289E+06    1.2470948E-07    1.2525095E-07    2.5486289E+06    3.1345942E-07    2.5486289E+06
   -1.30   300.000   -2.189E-01    2.6225505E+06    1.2287380E-07    1.2356982E-07    2.6225505E+06    3.0656561E-07    2.6225505E+06
   -1.29   300.000   -2.257E-01    2.6957181E+06    1.2120736E-07    1.2203374E-07    2.6957181E+06    2.9941272E-07    2.6957181E+06
   -1.28   300.000   -2.326E-01    2.7678590E+06    1.2038360E-07    1.2130699E-07    2.7678590E+06    2.9416425E-07    2.7678590E+06
   -1.27   300.000   -2.395E-01    2.8395566E+06    1.2062234E-07    1.2161522E-07    2.8395566E+06    2.9196835E-07    2.8395566E+06
   -1.26   300.000   -2.465E-01    2.9120386E+06    1.2164414E-07    1.2270034E-07    2.9120386E+06    2.9280162E-07    2.9120386E+06
   -1.25   300.000   -2.536E-01    2.9863132E+06    1.2295135E-07    1.2409416E-07    2.9863132E+06    2.9605863E-07    2.9863132E+06
   -1.24   300.000   -2.608E-01    3.0622785E+06    1.2416825E-07    1.2544413E-07    3.0622785E+06    3.0116556E-07    3.0622785E+06
   -1.23   300.000   -2.681E-01    3.1387809E+06    1.2518899E-07    1.2664809E-07    3.1387809E+06    3.0772214E-07    3.1387809E+06
   -1.22   300.000   -2.754E-01    3.2146957E+06    1.2610345E-07    1.2777742E-07    3.2146957E+06    3.1530825E-07    3.2146957E+06
   -1.21   300.000   -2.829E-01    3.2898841E+06    1.2704829E-07    1.2893659E-07    3.2898841E+06    3.2336526E-07    3.2898841E+06
   -1.20   300.000   -2.904E-01    3.3650735E+06    1.2810616E-07    1.3017515E-07    3.3650735E+06    3.3127167E-07    3.3650735E+06
   -1.19   300.000   -2.980E-01    3.4410957E+06    1.2925106E-07    1.3144375E-07    3.4410957E+06    3.3839309E-07    3.4410957E+06
   -1.18   300.000   -3.057E-01    3.5184530E+06    1.3028849E-07    1.3254158E-07    3.5184530E+06    3.4393401E-07    3.5184530E+06
   -1.17   300.000   -3.134E-01    3.5972706E+06    1.3080706E-07    1.3307069E-07    3.5972706E+06    3.4672392E-07    3.5972706E+06
   -1.16   300.000   -3.213E-01    3.6771220E+06    1.3024619E-07    1.3249853E-07    3.6771220E+06    3.4528634E-07    3.6771220E+06
   -1.15   300.000   -3.292E-01    3.7568826E+06    1.2816100E-07    1.3041101E-07    3.7568826E+06    3.3843934E-07    3.7568826E+06
   -1.14   300.000   -3.372E-01    3.8352187E+06    1.2457828E-07    1.2685648E-07    3.8352187E+06    3.2619174E-07    3.8352187E+06
   -1.13   300.000   -3.453E-01    3.9115768E+06    1.2015718E-07    1.2250088E-07    3.9115768E+06    3.1021547E-07    3.9115768E+06
   -1.12   300.000   -3.535E-01    3.9866971E+06    1.1596415E-07    1.1840451E-07    3.9866971E+06    2.9336801E-07    3.9866971E+06
   -1.11   300.000   -3.618E-01    4.0620457E+06    1.1299330E-07    1.1554675E-07    4.0620457E+06    2.7853610E-07    4.0620457E+06
   -1.10   300.000   -3.701E-01    4.1387468E+06    1.1176243E-07    1.1442460E-07    4.1387468E+06    2.6760180E-07    4.1387468E+06
   -1.09   300.000   -3.786E-01    4.2171222E+06    1.1222153E-07    1.1496203E-07    4.2171222E+06    2.6112901E-07    4.2171222E+06
   -1.08   300.000   -3.871E-01    4.2971292E+06    1.1396830E-07    1.1672875E-07    4.2971292E+06    2.5877884E-07    4.2971292E+06
   -1.07   300.000   -3.957E-01    4.3788501E+06    1.1657217E-07    1.1927263E-07    4.3788501E+06    2.5999417E-07    4.3788501E+06
   -1.06   300.000   -4.044E-01    4.4622657E+06    1.1977622E-07    1.2233331E-07    4.4622657E+06    2.6442920E-07    4.4622657E+06
   -1.05   300.000   -4.132E-01    4.5466680E+06    1.2350088E-07    1.2585423E-07    4.5466680E+06    2.7196283E-07    4.5466680E+06
   -1.04   300.000   -4.220E-01    4.6306923E+06    1.2776812E-07    1.2990285E-07    4.6306923E+06    2.8256262E-07    4.6306923E+06
   -1.03   300.000   -4.310E-01    4.7133005E+06    1.3267558E-07    1.3462660E-07    4.7133005E+06    2.9626214E-07    4.7133005E+06
   -1.02   300.000   -4.400E-01    4.7948714E+06    1.3838667E-07    1.4022211E-07    4.7948714E+06    3.1315001E-07    4.7948714E+06
   -1.01   300.000   -4.492E-01    4.8771915E+06    1.4501785E-07    1.4681434E-07    4.8771915E+06    3.3312445E-07    4.8771915E+06
   -1.00   300.000   -4.584E-01    4.9621221E+06    1.5241634E-07    1.5424374E-07    4.9621221E+06    3.5544120E-07    4.9621221E+06
   -0.99   300.000   -4.677E-01    5.0500499E+06    1.5997915E-07    1.6189957E-07    5.0500499E+06    3.7837574E-07    5.0500499E+06
   -0.98   300.000   -4.771E-01    5.1393193E+06    1.6668683E-07    1.6875607E-07    5.1393193E+06    3.9931189E-07    5.1393193E+06
   -0.97   300.000   -4.866E-01    5.2267666E+06    1.7140011E-07    1.7365805E-07    5.2267666E+06    4.1534083E-07    5.2267666E+06
   -0.96   300.000   -4.962E-01    5.3089087E+06    1.7329220E-07    1.7574449E-07    5.3089087E+06    4.2417591E-07    5.3089087E+06
   -0.95   300.000   -5.059E-01    5.3836262E+06    1.7218510E-07    1.7479209E-07    5.3836262E+06    4.2496530E-07    5.3836262E+06
   -0.94   300.000   -5.157E-01    5.4518102E+06    1.6862311E-07    1.7130773E-07    5.4518102E+06    4.1861622E-07    5.4518102E+06
   -0.93   300.000   -5.256E-01    5.5176036E+06    1.6370973E-07    1.6638077E-07    5.5176036E+06    4.0758742E-07    5.5176036E+06
   -0.92   300.000   -5.356E-01    5.5865240E+06    1.5884140E-07    1.6141719E-07    5.5865240E+06    3.9535888E-07    5.5865240E+06
   -0.91   300.000   -5.457E-01    5.6626092E+06    1.5539745E-07    1.5781772E-07    5.6626092E+06    3.8567146E-07    5.6626092E+06
   -0.90   300.000   -5.558E-01    5.7465539E+06    1.5438419E-07    1.5661090E-07    5.7465539E+06    3.8154772E-07    5.7465539E+06
   -0.89   300.000   -5.661E-01    5.8358898E+06    1.5612368E-07    1.5814005E-07    5.8358898E+06    3.8437560E-07    5.8358898E+06
   -0.88   300.000   -5.765E-01    5.9266710E+06    1.6017762E-07    1.6198950E-07    5.9266710E+06    3.9358886E-07    5.9266710E+06
   -0.87   300.000   -5.870E-01    6.0153241E+06    1.6561966E-07    1.6725403E-07    6.0153241E+06    4.0726412E-07    6.0153241E+06
   -0.86   300.000   -5.977E-01    6.0997806E+06    1.7152507E-07    1.7302032E-07    6.0997806E+06    4.2330814E-07    6.0997806E+06
   -0.85   300.000   -6.084E-01    6.1797829E+06    1.7735209E-07    1.7874227E-07    6.1797829E+06    4.4038548E-07    6.1797829E+06
   -0.84   300.000   -6.193E-01    6.2565209E+06    1.8297340E-07    1.8427367E-07    6.2565209E+06    4.5795965E-07    6.2565209E+06
   -0.83   300.000   -6.303E-01    6.3318365E+06    1.8841727E-07    1.8961744E-07    6.3318365E+06    4.7563703E-07    6.3318365E+06
   -0.82   300.000   -6.414E-01    6.4074195E+06    1.9358862E-07    1.9465797E-07    6.4074195E+06    4.9255524E-07    6.4074195E+06
   -0.81   300.000   -6.526E-01    6.4844414E+06    1.9818888E-07    1.9909014E-07    6.4844414E+06    5.0737215E-07    6.4844414E+06
   -0.80   300.000   -6.640E-01    6.5637571E+06    2.0183980E-07    2.0254440E-07    6.5637571E+06    5.1879378E-07    6.5637571E+06
   -0.79   300.000   -6.755E-01    6.6463646E+06    2.0426336E-07    2.0476013E-07    6.6463646E+06    5.2615730E-07    6.6463646E+06
   -0.78   300.000   -6.871E-01    6.7334086E+06    2.0539098E-07    2.0568837E-07    6.7334086E+06    5.2967992E-07    6.7334086E+06
   -0.77   300.000   -6.989E-01    6.8251316E+06    2.0535330E-07    2.0548207E-07    6.8251316E+06    5.3026823E-07    6.8251317E+06
   -0.76   300.000   -7.109E-01    6.9194802E+06    2.0433889E-07    2.0435854E-07    6.9194802E+06    5.2893371E-07    6.9194802E+06
   -0.75   300.000   -7.230E-01    7.0121208E+06    2.0239895E-07    2.0240290E-07    7.0121208E+06    5.2610042E-07    7.0121208E+06
   -0.74   300.000   -7.353E-01    7.0983578E+06    1.9938114E-07    1.9949265E-07    7.0983578E+06    5.2135608E-07    7.0983578E+06
   -0.73   300.000   -7.479E-01    7.1753303E+06    1.9509429E-07    1.9545060E-07    7.1753303E+06    5.1393953E-07    7.1753303E+06
   -0.72   300.000   -7.606E-01    7.2427966E+06    1.8958589E-07    1.9031621E-07    7.2427966E+06    5.0361354E-07    7.2427966E+06
   -0.71   300.000   -7.735E-01    7.3025567E+06    1.8331344E-07    1.8451997E-07    7.3025567E+06    4.9126953E-07    7.3025567E+06
   -0.70   300.000   -7.867E-01    7.3576492E+06    1.7707910E-07    1.7882580E-07    7.3576492E+06    4.7884812E-07    7.3576492E+06
   -0.69   300.000   -8.001E-01    7.4118887E+06    1.7176611E-07    1.7407218E-07    7.4118887E+06    4.6864209E-07    7.4118887E+06
   -0.68   300.000   -8.137E-01    7.4693140E+06    1.6803942E-07    1.7087281E-07    7.4693140E+06    4.6243198E-07    7.4693141E+06
   -0.67   300.000   -8.275E-01    7.5330100E+06    1.6616328E-07    1.6943592E-07    7.5330100E+06    4.6091712E-07    7.5330101E+06
   -0.66   300.000   -8.416E-01    7.6034657E+06    1.6597817E-07    1.6954962E-07    7.6034657E+06    4.6359848E-07    7.6034658E+06
   -0.65   300.000   -8.558E-01    7.6776442E+06    1.6698778E-07    1.7068040E-07    7.6776442E+06    4.6899151E-07    7.6776443E+06
   -0.64   300.000   -8.703E-01    7.7501817E+06    1.6848783E-07    1.7211057E-07    7.7501817E+06    4.7497877E-07    7.7501819E+06
   -0.63   300.000   -8.849E-01    7.8162792E+06    1.6968845E-07    1.7306563E-07    7.8162792E+06    4.7917995E-07    7.8162796E+06
   -0.62   300.000   -8.997E-01    7.8737137E+06    1.6982869E-07    1.7283110E-07    7.8737137E+06    4.7937507E-07    7.8737143E+06
   -0.61   300.000   -9.145E-01    7.9223955E+06    1.6833884E-07    1.7091154E-07    7.9223955E+06    4.7413020E-07    7.9223964E+06
   -0.60   300.000   -9.294E-01    7.9628627E+06    1.6504988E-07    1.6722840E-07    7.9628627E+06    4.6349179E-07    7.9628640E+06
   -0.59   300.000   -9.443E-01    7.9958928E+06    1.6029658E-07    1.6220420E-07    7.9958928E+06    4.4915136E-07    7.9958947E+06
   -0.58   300.000   -9.592E-01    8.0235788E+06    1.5477783E-07    1.5660086E-07    8.0235788E+06    4.3371959E-07    8.0235817E+06
   -0.57   300.000   -9.742E-01    8.0503420E+06    1.4926341E-07    1.5120722E-07    8.0503420E+06    4.1960628E-07    8.0503462E+06
   -0.56   300.000   -9.891E-01    8.0820926E+06    1.4435532E-07    1.4659160E-07    8.0820926E+06    4.0831521E-07    8.0820988E+06
   -0.55   300.000   -1.004E+00    8.1233905E+06    1.4040807E-07    1.4303085E-07    8.1233905E+06    4.0042591E-07    8.1233995E+06
   -0.54   300.000   -1.019E+00    8.1746362E+06    1.3757146E-07    1.4057784E-07    8.1746362E+06    3.9595413E-07    8.1746495E+06
   -0.53   300.000   -1.034E+00    8.2314429E+06    1.3585672E-07    1.3915709E-07    8.2314429E+06    3.9464397E-07    8.2314624E+06
   -0.52   300.000   -1.049E+00    8.2863342E+06    1.3514762E-07    1.3859720E-07    8.2863342E+06    3.9595185E-07    8.2863630E+06
   -0.51   300.000   -1.065E+00    8.3316126E+06    1.3517354E-07    1.3861255E-07    8.3316126E+06    3.9886308E-07    8.3316549E+06
   -0.50   300.000   -1.080E+00    8.3622514E+06    1.3552883E-07    1.3882176E-07    8.3622514E+06    4.0190399E-07    8.3623137E+06
   -0.49   300.000   -1.095E+00    8.3773512E+06    1.3576014E-07    1.3882501E-07    8.3773512E+06    4.0348167E-07    8.3774428E+06
   -0.48   300.000   -1.110E+00    8.3789327E+06    1.3545575E-07    1.3827330E-07    8.3789327E+06    4.0232466E-07    8.3790675E+06
   -0.47   300.000   -1.126E+00    8.3691651E+06    1.3429756E-07    1.3689812E-07    8.3691651E+06    3.9778468E-07    8.3693632E+06
   -0.46   300.000   -1.141E+00    8.3490419E+06    1.3210187E-07    1.3454084E-07    8.3490419E+06    3.8994958E-07    8.3493330E+06
   -0.45   300.000   -1.156E+00    8.3199000E+06    1.2886533E-07    1.3120232E-07    8.3199000E+06    3.7958292E-07    8.3203272E+06
   -0.44   300.000   -1.171E+00    8.2858591E+06    1.2479095E-07    1.2707844E-07    8.2858591E+06    3.6790687E-07    8.2864850E+06
   -0.43   300.000   -1.186E+00    8.2543201E+06    1.2026584E-07    1.2254370E-07    8.2543201E+06    3.5630178E-07    8.2552353E+06
   -0.42   300.000   -1.201E+00    8.2336176E+06    1.1578414E-07    1.1807734E-07    8.2336176E+06    3.4602794E-07    8.2349514E+06
   -0.41   300.000   -1.215E+00    8.2291034E+06    1.1183845E-07    1.1415873E-07    8.2291034E+06    3.3804384E-07    8.2310385E+06
   -0.40   300.000   -1.230E+00    8.2397315E+06    1.0881876E-07    1.1116864E-07    8.2397315E+06    3.3293560E-07    8.2425201E+06
   -0.39   300.000   -1.244E+00    8.2571119E+06    1.0693573E-07    1.0930940E-07    8.2571119E+06    3.3089205E-07    8.2610922E+06
   -0.38   300.000   -1.258E+00    8.2682279E+06    1.0616653E-07    1.0854759E-07    8.2682279E+06    3.3165921E-07    8.2738338E+06
   -0.37   300.000   -1.272E+00    8.2610291E+06    1.0625257E-07    1.0861584E-07    8.2610291E+06    3.3453305E-07    8.2687803E+06
   -0.36   300.000   -1.286E+00    8.2299031E+06    1.0679666E-07    1.0911938E-07    8.2299031E+06    3.3852334E-07    8.2403593E+06
   -0.35   300.000   -1.300E+00    8.1777818E+06    1.0745257E-07    1.0972914E-07    8.1777818E+06    3.4272565E-07    8.1914453E+06
   -0.34   300.000   -1.313E+00    8.1137978E+06    1.0812066E-07    1.1036925E-07    8.1137978E+06    3.4677848E-07    8.1309687E+06
   -0.33   300.000   -1.326E+00    8.0483001E+06    1.0902890E-07    1.1128388E-07    8.0483001E+06    3.5113962E-07    8.0689281E+06
   -0.32   300.000   -1.340E+00    7.9884616E+06    1.1060365E-07    1.1289882E-07    7.9884616E+06    3.5684708E-07    8.0120736E+06
   -0.31   300.000   -1.353E+00    7.9367744E+06    1.1314637E-07    1.1549921E-07    7.9367744E+06    3.6468478E-07    7.9625427E+06
   -0.30   300.000   -1.365E+00    7.8926000E+06    1.1651728E-07    1.1892102E-07    7.8926000E+06    3.7428383E-07    7.9195329E+06
   -0.29   300.000   -1.378E+00    7.8550810E+06    1.2010882E-07    1.2253409E-07    7.8550810E+06    3.8402439E-07    7.8822391E+06
   -0.28   300.000   -1.391E+00    7.8250349E+06    1.2319418E-07    1.2560053E-07    7.8250349E+06    3.9204298E-07    7.8516756E+06
   -0.27   300.000   -1.403E+00    7.8045737E+06    1.2538492E-07    1.2774064E-07    7.8045737E+06    3.9756987E-07    7.8301993E+06
   -0.26   300.000   -1.416E+00    7.7951422E+06    1.2680677E-07    1.2910959E-07    7.7951422E+06    4.0139885E-07    7.8194756E+06
   -0.25   300.000   -1.428E+00    7.7955816E+06    1.2788208E-07    1.3016902E-07    7.7955816E+06    4.0511586E-07    7.8185030E+06
   -0.24   300.000   -1.441E+00    7.8014603E+06    1.2897050E-07    1.3131001E-07    7.8014603E+06    4.0985929E-07    7.8229389E+06
   -0.23   300.000   -1.453E+00    7.8058653E+06    1.3016218E-07    1.3263216E-07    7.8058653E+06    4.1559121E-07    7.8259212E+06
   -0.22   300.000   -1.465E+00    7.8008798E+06    1.3130182E-07    1.3396422E-07    7.8008798E+06    4.2121425E-07    7.8195908E+06
   -0.21   300.000   -1.478E+00    7.7790464E+06    1.3215428E-07    1.3503676E-07    7.7790464E+06    4.2526811E-07    7.7965602E+06
   -0.20   300.000   -1.491E+00    7.7349120E+06    1.3256868E-07    1.3565914E-07    7.7349120E+06    4.2667628E-07    7.7514179E+06
   -0.19   300.000   -1.503E+00    7.6669907E+06    1.3251073E-07    1.3576517E-07    7.6669907E+06    4.2504794E-07    7.6826561E+06
   -0.18   300.000   -1.516E+00    7.5797409E+06    1.3197464E-07    1.3533309E-07    7.5797409E+06    4.2050842E-07    7.5946631E+06
   -0.17   300.000   -1.529E+00    7.4841729E+06    1.3094725E-07    1.3435062E-07    7.4841729E+06    4.1354225E-07    7.4983883E+06
   -0.16   300.000   -1.541E+00    7.3958312E+06    1.2951835E-07    1.3292168E-07    7.3958312E+06    4.0513993E-07    7.4093688E+06
   -0.15   300.000   -1.554E+00    7.3305716E+06    1.2799521E-07    1.3137701E-07    7.3305716E+06    3.9691043E-07    7.3435025E+06
   -0.14   300.000   -1.568E+00    7.3001278E+06    1.2684304E-07    1.3021240E-07    7.3001278E+06    3.9073766E-07    7.3125685E+06
   -0.13   300.000   -1.581E+00    7.3090273E+06    1.2645503E-07    1.2985665E-07    7.3090273E+06    3.8803564E-07    7.3210995E+06
   -0.12   300.000   -1.595E+00    7.3527687E+06    1.2686954E-07    1.3038276E-07    7.3527687E+06    3.8892533E-07    7.3645489E+06
   -0.11   300.000   -1.609E+00    7.4170313E+06    1.2755928E-07    1.3128513E-07    7.4170313E+06    3.9166835E-07    7.4285234E+06
   -0.10   300.000   -1.623E+00    7.4794985E+06    1.2746977E-07    1.3150493E-07    7.4794985E+06    3.9286178E-07    7.4906418E+06
   -0.09   300.000   -1.638E+00    7.5162370E+06    1.2545459E-07    1.2986186E-07    7.5162370E+06    3.8881256E-07    7.5269471E+06
   -0.08   300.000   -1.653E+00    7.5109891E+06    1.2093764E-07    1.2572768E-07    7.5109891E+06    3.7757140E-07    7.5212115E+06
   -0.07   300.000   -1.669E+00    7.4615839E+06    1.1429945E-07    1.1943033E-07    7.4615839E+06    3.6011869E-07    7.4713347E+06
   -0.06   300.000   -1.685E+00    7.3787467E+06    1.0664024E-07    1.1202911E-07    7.3787467E+06    3.3966067E-07    7.3881189E+06
   -0.05   300.000   -1.701E+00    7.2788169E+06    9.9132709E-08    1.0467055E-07    7.2788169E+06    3.1966924E-07    7.2879477E+06
   -0.04   300.000   -1.718E+00    7.1764859E+06    9.2489381E-08    9.8057119E-08    7.1764859E+06    3.0224138E-07    7.1854929E+06
   -0.03   300.000   -1.736E+00    7.0819353E+06    8.6843023E-08    9.2331518E-08    7.0819353E+06    2.8770168E-07    7.0908502E+06
   -0.02   300.000   -1.754E+00    7.0019298E+06    8.1942425E-08    8.7273022E-08    7.0019298E+06    2.7520391E-07    7.0106727E+06
   -0.01   300.000   -1.773E+00    6.9419461E+06    7.7414556E-08    8.2549365E-08    6.9419461E+06    2.6359848E-07    6.9503695E+06
    0.00   300.000   -1.793E+00    6.9071772E+06    7.2960175E-08    7.7894991E-08    6.9071772E+06    2.5210091E-07    6.9151562E+06
    0.01   300.000   -1.813E+00    6.9017515E+06    6.8482700E-08    7.3227336E-08    6.9017515E+06    2.4066118E-07    6.9092593E+06
    0.02   300.000   -1.833E+00    6.9264417E+06    6.4139645E-08    6.8697632E-08    6.9264417E+06    2.2997165E-07    6.9335593E+06
    0.03   300.000   -1.853E+00    6.9760455E+06    6.0268065E-08    6.4626165E-08    6.9760455E+06    2.2106235E-07    6.9829054E+06
    0.04   300.000   -1.874E+00    7.0385229E+06    5.7209436E-08    6.1342377E-08    7.0385229E+06    2.1470839E-07    7.0452243E+06
    0.05   300.000   -1.894E+00    7.0975146E+06    5.5156892E-08    5.9045145E-08    7.0975146E+06    2.1107661E-07    7.1040586E+06
    0.06   300.000   -1.914E+00    7.1375683E+06    5.4129305E-08    5.7777457E-08    7.1375683E+06    2.0984252E-07    7.1438503E+06
    0.07   300.000   -1.934E+00    7.1491513E+06    5.4073413E-08    5.7513275E-08    7.1491513E+06    2.1064648E-07    7.1550188E+06
    0.08   300.000   -1.953E+00    7.1306845E+06    5.5017167E-08    5.8291737E-08    7.1306845E+06    2.1358119E-07    7.1360261E+06
    0.09   300.000   -1.972E+00    7.0873404E+06    5.7187770E-08    6.0330650E-08    7.0873404E+06    2.1946925E-07    7.0921529E+06
    0.10   300.000   -1.991E+00    7.0285932E+06    6.1052210E-08    6.4082297E-08    7.0285932E+06    2.2987970E-07    7.0329955E+06
    0.11   300.000   -2.010E+00    6.9663127E+06    6.7294975E-08    7.0230685E-08    6.9663127E+06    2.4698733E-07    6.9705107E+06
    0.12   300.000   -2.029E+00    6.9136219E+06    7.6762535E-08    7.9638568E-08    6.9136219E+06    2.7337576E-07    6.9178466E+06
    0.13   300.000   -2.047E+00    6.8841261E+06    9.0375194E-08    9.3240093E-08    6.8841261E+06    3.1178190E-07    6.8885653E+06
    0.14   300.000   -2.066E+00    6.8913536E+06    1.0898128E-07    1.1187101E-07    6.8913536E+06    3.6470647E-07    6.8960906E+06
    0.15   300.000   -2.085E+00    6.9478723E+06    1.3312877E-07    1.3603421E-07    6.9478723E+06    4.3380198E-07    6.9528508E+06
    0.16   300.000   -2.104E+00    7.0630520E+06    1.6275949E-07    1.6561505E-07    7.0630520E+06    5.1902142E-07    7.0680914E+06
    0.17   300.000   -2.124E+00    7.2393465E+06    1.9689166E-07    1.9959991E-07    7.2393465E+06    6.1769626E-07    7.2442120E+06
    0.18   300.000   -2.145E+00    7.4687680E+06    2.3340908E-07    2.3589186E-07    7.4687680E+06    7.2388356E-07    7.4732678E+06
    0.19   300.000   -2.167E+00    7.7321894E+06    2.6908843E-07    2.7133582E-07    7.7321894E+06    8.2836296E-07    7.7362461E+06
    0.20   300.000   -2.189E+00    8.0035097E+06    2.9999873E-07    3.0208884E-07    8.0035097E+06    9.1969986E-07    8.0071788E+06
# T(K) = 400.00   Npoints =     441   V(cm^3) =  3.848E-22
   -4.20   400.000    9.823E+00    7.4514022E+05    2.7186585E-08    2.7281921E-08    7.4514022E+05    6.8166730E-08    7.4557084E+05
   -4.19   400.000    9.794E+00    7.9294343E+05    3.1625426E-08    3.1740881E-08    7.9294343E+05    7.9281157E-08    7.9336963E+05
   -4.18   400.000    9.760E+00    8.4015309E+05    3.6883723E-08    3.7020361E-08    8.4015309E+05    9.2351287E-08    8.4057384E+05
   -4.17   400.000    9.721E+00    8.8644263E+05    4.3046128E-08    4.3203862E-08    8.8644263E+05    1.0757062E-07    8.8685751E+05
   -4.16   400.000    9.677E+00    9.3135959E+05    5.0155648E-08    5.0333666E-08    9.3135959E+05    1.2503776E-07    9.3176863E+05
   -4.15   400.000    9.625E+00    9.7426946E+05    5.8194449E-08    5.8391686E-08    9.7426946E+05    1.4470846E-07    9.7467302E+05
   -4.14   400.000    9.566E+00    1.0143285E+06    6.7072653E-08    6.7288086E-08    1.0143285E+06    1.6636484E-07    1.0147272E+06
   -4.13   400.000    9.498E+00    1.0505050E+06    7.6627075E-08    7.6859715E-08    1.0505050E+06    1.8960833E-07    1.0508998E+06
   -4.12   400.000    9.422E+00    1.0816613E+06    8.6626154E-08    8.6874797E-08    1.0816613E+06    2.1386975E-07    1.0820536E+06
   -4.11   400.000    9.337E+00    1.1066987E+06    9.6774191E-08    9.7037112E-08    1.1066987E+06    2.3842280E-07    1.1070904E+06
   -4.10   400.000    9.243E+00    1.1247545E+06    1.0671053E-07    1.0698532E-07    1.1247545E+06    2.6239125E-07    1.1251478E+06
   -4.09   400.000    9.140E+00    1.1354201E+06    1.1600677E-07    1.1629044E-07    1.1354201E+06    2.8475502E-07    1.1358179E+06
   -4.08   400.000    9.029E+00    1.1389370E+06    1.2417292E-07    1.2446226E-07    1.1389370E+06    3.0437546E-07    1.1393424E+06
   -4.07   400.000    8.910E+00    1.1363249E+06    1.3068629E-07    1.3097829E-07    1.1363249E+06    3.2006643E-07    1.1367410E+06
   -4.06   400.000    8.785E+00    1.1294108E+06    1.3505223E-07    1.3534448E-07    1.1294108E+06    3.3072900E-07    1.1298403E+06
   -4.05   400.000    8.654E+00    1.1207358E+06    1.3689332E-07    1.3718430E-07    1.1207358E+06    3.3554327E-07    1.1211804E+06
   -4.04   400.000    8.519E+00    1.1133354E+06    1.3604653E-07    1.3633575E-07    1.1133354E+06    3.3417634E-07    1.1137951E+06
   -4.03   400.000    8.382E+00    1.1104136E+06    1.3263580E-07    1.3292377E-07    1.1104136E+06    3.2693836E-07    1.1108863E+06
   -4.02   400.000    8.245E+00    1.1149630E+06    1.2708897E-07    1.2737711E-07    1.1149630E+06    3.1482048E-07    1.1154436E+06
   -4.01   400.000    8.109E+00    1.1294016E+06    1.2008644E-07    1.2037678E-07    1.1294016E+06    2.9938443E-07    1.1298819E+06
   -4.00   400.000    7.974E+00    1.1552961E+06    1.1245404E-07    1.1274882E-07    1.1552961E+06    2.8252777E-07    1.1557656E+06
   -3.99   400.000    7.841E+00    1.1932199E+06    1.0503131E-07    1.0533258E-07    1.1932199E+06    2.6618936E-07    1.1936671E+06
   -3.98   400.000    7.710E+00    1.2427601E+06    9.8549868E-08    9.8858926E-08    1.2427601E+06    2.5207093E-07    1.2431737E+06
   -3.97   400.000    7.581E+00    1.3026496E+06    9.3546473E-08    9.3863459E-08    1.3026496E+06    2.4143256E-07    1.3030211E+06
   -3.96   400.000    7.452E+00    1.3709794E+06    9.0320565E-08    9.0644058E-08    1.3709794E+06    2.3498809E-07    1.3713034E+06
   -3.95   400.000    7.323E+00    1.4454287E+06    8.8932637E-08    8.9259408E-08    1.4454287E+06    2.3289591E-07    1.4457037E+06
   -3.94   400.000    7.193E+00    1.5234664E+06    8.9233354E-08    8.9558294E-08    1.5234664E+06    2.3482276E-07    1.5236943E+06
   -3.93   400.000    7.060E+00    1.6024953E+06    9.0912870E-08    9.1229141E-08    1.6024953E+06    2.4005458E-07    1.6026802E+06
   -3.92   400.000    6.925E+00    1.6799439E+06    9.3561602E-08    9.3861003E-08    1.6799439E+06    2.4763219E-07    1.6800913E+06
   -3.91   400.000    6.788E+00    1.7533332E+06    9.6734178E-08    9.7007705E-08    1.7533332E+06    2.5649341E-07    1.7534491E+06
   -3.90   400.000    6.647E+00    1.8203559E+06    1.0000725E-07    1.0024579E-07    1.8203559E+06    2.6560429E-07    1.8204460E+06
   -3.89   400.000    6.504E+00    1.8789943E+06    1.0302246E-07    1.0321750E-07    1.8789943E+06    2.7406349E-07    1.8790637E+06
   -3.88   400.000    6.359E+00    1.9276794E+06    1.0550990E-07    1.0565423E-07    1.9276794E+06    2.8116944E-07    1.9277325E+06
   -3.87   400.000    6.214E+00    1.9654596E+06    1.0729319E-07    1.0738144E-07    1.9654596E+06    2.8644666E-07    1.9655000E+06
   -3.86   400.000    6.070E+00    1.9921264E+06    1.0828040E-07    1.0830925E-07    1.9921264E+06    2.8963301E-07    1.9921570E+06
   -3.85   400.000    5.926E+00    2.0082420E+06    1.0844491E-07    1.0841315E-07    2.0082420E+06    2.9063390E-07    2.0082651E+06
   -3.84   400.000    5.785E+00    2.0150443E+06    1.0780002E-07    1.0770833E-07    2.0150443E+06    2.8945538E-07    2.0150617E+06
   -3.83   400.000    5.647E+00    2.0142410E+06    1.0637311E-07    1.0622377E-07    2.0142410E+06    2.8613684E-07    2.0142541E+06
   -3.82   400.000    5.513E+00    2.0077396E+06    1.0418749E-07    1.0398411E-07    2.0077396E+06    2.8070715E-07    2.0077495E+06
   -3.81   400.000    5.383E+00    1.9973731E+06    1.0125874E-07    1.0100605E-07    1.9973731E+06    2.7318006E-07    1.9973805E+06
   -3.80   400.000    5.258E+00    1.9846853E+06    9.7605498E-08    9.7309130E-08    1.9846853E+06    2.6358508E-07    1.9846909E+06
   -3.79   400.000    5.139E+00    1.9708257E+06    9.3267078E-08    9.2933256E-08    1.9708257E+06    2.5201311E-07    1.9708299E+06
   -3.78   400.000    5.026E+00    1.9565745E+06    8.8318024E-08    8.7953115E-08    1.9565745E+06    2.3865273E-07    1.9565776E+06
   -3.77   400.000    4.920E+00    1.9424792E+06    8.2873596E-08    8.2483500E-08    1.9424792E+06    2.2380377E-07    1.9424815E+06
   -3.76   400.000    4.822E+00    1.9290465E+06    7.7086368E-08    7.6675861E-08    1.9290465E+06    2.0786908E-07    1.9290483E+06
   -3.75   400.000    4.731E+00    1.9169161E+06    7.1137214E-08    7.0709398E-08    1.9169161E+06    1.9133155E-07    1.9169174E+06
   -3.74   400.000    4.647E+00    1.9069505E+06    6.5222941E-08    6.4778928E-08    1.9069505E+06    1.7472058E-07    1.9069515E+06
   -3.73   400.000    4.571E+00    1.9002078E+06    5.9540482E-08    5.9079374E-08    1.9002078E+06    1.5856778E-07    1.9002085E+06
   -3.72   400.000    4.502E+00    1.8978073E+06    5.4267335E-08    5.3786483E-08    1.8978073E+06    1.4335247E-07    1.8978078E+06
   -3.71   400.000    4.440E+00    1.9007392E+06    4.9540502E-08    4.9036013E-08    1.9007392E+06    1.2944528E-07    1.9007396E+06
   -3.70   400.000    4.384E+00    1.9096877E+06    4.5439501E-08    4.4906938E-08    1.9096877E+06    1.1706647E-07    1.9096880E+06
   -3.69   400.000    4.333E+00    1.9249212E+06    4.1979955E-08    4.1415120E-08    1.9249212E+06    1.0627535E-07    1.9249215E+06
   -3.68   400.000    4.288E+00    1.9462742E+06    3.9121163E-08    3.8520854E-08    1.9462742E+06    9.6997478E-08    1.9462743E+06
   -3.67   400.000    4.247E+00    1.9732158E+06    3.6785192E-08    3.6147734E-08    1.9732158E+06    8.9078974E-08    1.9732159E+06
   -3.66   400.000    4.211E+00    2.0049881E+06    3.4879682E-08    3.4205145E-08    2.0049881E+06    8.2344848E-08    2.0049882E+06
   -3.65   400.000    4.177E+00    2.0407786E+06    3.3315501E-08    3.2605588E-08    2.0407786E+06    7.6637939E-08    2.0407787E+06
   -3.64   400.000    4.146E+00    2.0798829E+06    3.2014393E-08    3.1272106E-08    2.0798829E+06    7.1828289E-08    2.0798829E+06
   -3.63   400.000    4.117E+00    2.1218040E+06    3.0908239E-08    3.0137450E-08    2.1218040E+06    6.7800325E-08    2.1218041E+06
   -3.62   400.000    4.090E+00    2.1662546E+06    2.9936132E-08    2.9141138E-08    2.1662546E+06    6.4436079E-08    2.1662546E+06
   -3.61   400.000    4.065E+00    2.2130631E+06    2.9045335E-08    2.8230449E-08    2.2130631E+06    6.1611064E-08    2.2130632E+06
   -3.60   400.000    4.041E+00    2.2620355E+06    2.8197769E-08    2.7366979E-08    2.2620355E+06    5.9207942E-08    2.2620355E+06
   -3.59   400.000    4.018E+00    2.3128411E+06    2.7378347E-08    2.6535099E-08    2.3128411E+06    5.7139652E-08    2.3128411E+06
   -3.58   400.000    3.996E+00    2.3649876E+06    2.6599054E-08    2.5746216E-08    2.3649876E+06    5.5366803E-08    2.3649876E+06
   -3.57   400.000    3.975E+00    2.4179201E+06    2.5894789E-08    2.5034753E-08    2.4179201E+06    5.3897956E-08    2.4179201E+06
   -3.56   400.000    3.954E+00    2.4712162E+06    2.5311674E-08    2.4446491E-08    2.4712162E+06    5.2772074E-08    2.4712162E+06
   -3.55   400.000    3.933E+00    2.5247657E+06    2.4892495E-08    2.4023909E-08    2.5247657E+06    5.2031993E-08    2.5247657E+06
   -3.54   400.000    3.913E+00    2.5787919E+06    2.4664831E-08    2.3794149E-08    2.5787919E+06    5.1700471E-08    2.5787920E+06
   -3.53   400.000    3.892E+00    2.6336588E+06    2.4635487E-08    2.3763365E-08    2.6336588E+06    5.1766996E-08    2.6336588E+06
   -3.52   400.000    3.872E+00    2.6895627E+06    2.4791876E-08    2.3918155E-08    2.6895627E+06    5.2187928E-08    2.6895627E+06
   -3.51   400.000    3.852E+00    2.7462871E+06    2.5108656E-08    2.4232368E-08    2.7462871E+06    5.2898157E-08    2.7462871E+06
   -3.50   400.000    3.831E+00    2.8031346E+06    2.5556759E-08    2.4676317E-08    2.8031346E+06    5.3829465E-08    2.8031346E+06
   -3.49   400.000    3.810E+00    2.8590431E+06    2.6111631E-08    2.5225125E-08    2.8590431E+06    5.4928647E-08    2.8590431E+06
   -3.48   400.000    3.789E+00    2.9128311E+06    2.6757906E-08    2.5863415E-08    2.9128311E+06    5.6167646E-08    2.9128311E+06
   -3.47   400.000    3.767E+00    2.9635118E+06    2.7489098E-08    2.6584926E-08    2.9635118E+06    5.7540337E-08    2.9635118E+06
   -3.46   400.000    3.745E+00    3.0105866E+06    2.8302795E-08    2.7387609E-08    3.0105866E+06    5.9046224E-08    3.0105866E+06
   -3.45   400.000    3.723E+00    3.0541895E+06    2.9193196E-08    2.8266071E-08    3.0541895E+06    6.0667448E-08    3.0541895E+06
   -3.44   400.000    3.700E+00    3.0949858E+06    3.0143406E-08    2.9203807E-08    3.0949858E+06    6.2349011E-08    3.0949858E+06
   -3.43   400.000    3.676E+00    3.1338539E+06    3.1120152E-08    3.0167889E-08    3.1338539E+06    6.3991889E-08    3.1338539E+06
   -3.42   400.000    3.652E+00    3.1715144E+06    3.2073663E-08    3.1108832E-08    3.1715144E+06    6.5464960E-08    3.1715144E+06
   -3.41   400.000    3.628E+00    3.2082869E+06    3.2944280E-08    3.1967154E-08    3.2082869E+06    6.6634593E-08    3.2082869E+06
   -3.40   400.000    3.602E+00    3.2440624E+06    3.3674425E-08    3.2685297E-08    3.2440624E+06    6.7402116E-08    3.2440624E+06
   -3.39   400.000    3.577E+00    3.2784649E+06    3.4221457E-08    3.3220412E-08    3.2784649E+06    6.7733681E-08    3.2784649E+06
   -3.38   400.000    3.550E+00    3.3111166E+06    3.4565987E-08    3.3552645E-08    3.3111166E+06    6.7669047E-08    3.3111166E+06
   -3.37   400.000    3.523E+00    3.3419086E+06    3.4712606E-08    3.3685869E-08    3.3419086E+06    6.7305362E-08    3.3419086E+06
   -3.36   400.000    3.496E+00    3.3711806E+06    3.4683901E-08    3.3641731E-08    3.3711806E+06    6.6763450E-08    3.3711806E+06
   -3.35   400.000    3.468E+00    3.3997277E+06    3.4511116E-08    3.3450403E-08    3.3997277E+06    6.6150337E-08    3.3997277E+06
   -3.34   400.000    3.439E+00    3.4286049E+06    3.4224638E-08    3.3141236E-08    3.4286049E+06    6.5530366E-08    3.4286049E+06
   -3.33   400.000    3.409E+00    3.4587853E+06    3.3846140E-08    3.2735137E-08    3.4587853E+06    6.4911642E-08    3.4587853E+06
   -3.32   400.000    3.380E+00    3.4908012E+06    3.3383935E-08    3.2240176E-08    3.4908012E+06    6.4249631E-08    3.4908012E+06
   -3.31   400.000    3.349E+00    3.5245234E+06    3.2833507E-08    3.1652284E-08    3.5245234E+06    6.3466611E-08    3.5245234E+06
   -3.30   400.000    3.318E+00    3.5591749E+06    3.2184204E-08    3.0962032E-08    3.5591749E+06    6.2482187E-08    3.5591749E+06
   -3.29   400.000    3.287E+00    3.5935570E+06    3.1430049E-08    3.0165382E-08    3.5935570E+06    6.1245457E-08    3.5935570E+06
   -3.28   400.000    3.256E+00    3.6263764E+06    3.0579773E-08    2.9273518E-08    3.6263764E+06    5.9756816E-08    3.6263764E+06
   -3.27   400.000    3.224E+00    3.6565680E+06    2.9661200E-08    2.8316879E-08    3.6565680E+06    5.8070702E-08    3.6565680E+06
   -3.26   400.000    3.192E+00    3.6835551E+06    2.8718168E-08    2.7341673E-08    3.6835551E+06    5.6279215E-08    3.6835551E+06
   -3.25   400.000    3.161E+00    3.7073990E+06    2.7801856E-08    2.6400824E-08    3.7073990E+06    5.4484949E-08    3.7073990E+06
   -3.24   400.000    3.129E+00    3.7287612E+06    2.6960294E-08    2.5543244E-08    3.7287612E+06    5.2774614E-08    3.7287612E+06
   -3.23   400.000    3.097E+00    3.7486248E+06    2.6229586E-08    2.4805018E-08    3.7486248E+06    5.1202346E-08    3.7486248E+06
   -3.22   400.000    3.066E+00    3.7678446E+06    2.5629049E-08    2.4204691E-08    3.7678446E+06    4.9786110E-08    3.7678446E+06
   -3.21   400.000    3.035E+00    3.7867279E+06    2.5160938E-08    2.3743279E-08    3.7867279E+06    4.8515510E-08    3.7867280E+06
   -3.20   400.000    3.004E+00    3.8048464E+06    2.4813939E-08    2.3408073E-08    3.8048464E+06    4.7365881E-08    3.8048464E+06
   -3.19   400.000    2.973E+00    3.8211387E+06    2.4568384E-08    2.3178074E-08    3.8211387E+06    4.6312451E-08    3.8211388E+06
   -3.18   400.000    2.943E+00    3.8342231E+06    2.4400897E-08    2.3028738E-08    3.8342231E+06    4.5339662E-08    3.8342231E+06
   -3.17   400.000    2.912E+00    3.8427876E+06    2.4287308E-08    2.2934885E-08    3.8427876E+06    4.4443837E-08    3.8427876E+06
   -3.16   400.000    2.882E+00    3.8459503E+06    2.4204380E-08    2.2872376E-08    3.8459503E+06    4.3630634E-08    3.8459503E+06
   -3.15   400.000    2.852E+00    3.8435070E+06    2.4131585E-08    2.2819849E-08    3.8435070E+06    4.2910483E-08    3.8435070E+06
   -3.14   400.000    2.823E+00    3.8360061E+06    2.4053470E-08    2.2761068E-08    3.8360061E+06    4.2294916E-08    3.8360061E+06
   -3.13   400.000    2.793E+00    3.8246340E+06    2.3961911E-08    2.2687192E-08    3.8246340E+06    4.1795234E-08    3.8246341E+06
   -3.12   400.000    2.763E+00    3.8109561E+06    2.3857229E-08    2.2597932E-08    3.8109561E+06    4.1423502E-08    3.8109562E+06
   -3.11   400.000    2.733E+00    3.7965976E+06    2.3747869E-08    2.2501266E-08    3.7965976E+06    4.1194780E-08    3.7965978E+06
   -3.10   400.000    2.703E+00    3.7829571E+06    2.3648834E-08    2.2411893E-08    3.7829571E+06    4.1128650E-08    3.7829574E+06
   -3.09   400.000    2.672E+00    3.7710259E+06    2.3578633E-08    2.2348172E-08    3.7710259E+06    4.1247574E-08    3.7710262E+06
   -3.08   400.000    2.641E+00    3.7613651E+06    2.3554148E-08    2.2327015E-08    3.7613651E+06    4.1570732E-08    3.7613656E+06
   -3.07   400.000    2.609E+00    3.7542468E+06    2.3584077E-08    2.2357353E-08    3.7542468E+06    4.2105027E-08    3.7542474E+06
   -3.06   400.000    2.575E+00    3.7498978E+06    2.3663668E-08    2.2434882E-08    3.7498978E+06    4.2838123E-08    3.7498986E+06
   -3.05   400.000    2.541E+00    3.7487362E+06    2.3774205E-08    2.2541467E-08    3.7487362E+06    4.3738746E-08    3.7487372E+06
   -3.04   400.000    2.504E+00    3.7514866E+06    2.3888650E-08    2.2650608E-08    3.7514866E+06    4.4766000E-08    3.7514880E+06
   -3.03   400.000    2.465E+00    3.7591104E+06    2.3981603E-08    2.2737201E-08    3.7591104E+06    4.5884321E-08    3.7591122E+06
   -3.02   400.000    2.424E+00    3.7725453E+06    2.4039442E-08    2.2787607E-08    3.7725453E+06    4.7077482E-08    3.7725478E+06
   -3.01   400.000    2.380E+00    3.7923187E+06    2.4066483E-08    2.2805915E-08    3.7923187E+06    4.8355528E-08    3.7923220E+06
   -3.00   400.000    2.334E+00    3.8181603E+06    2.4084756E-08    2.2813982E-08    3.8181603E+06    4.9751938E-08    3.8181647E+06
   -2.99   400.000    2.284E+00    3.8487843E+06    2.4127599E-08    2.2845267E-08    3.8487843E+06    5.1312397E-08    3.8487902E+06
   -2.98   400.000    2.231E+00    3.8819558E+06    2.4229519E-08    2.2934793E-08    3.8819558E+06    5.3079270E-08    3.8819637E+06
   -2.97   400.000    2.174E+00    3.9148281E+06    2.4415837E-08    2.3108713E-08    3.9148281E+06    5.5076362E-08    3.9148386E+06
   -2.96   400.000    2.114E+00    3.9444174E+06    2.4695265E-08    2.3376692E-08    3.9444174E+06    5.7297614E-08    3.9444314E+06
   -2.95   400.000    2.051E+00    3.9680562E+06    2.5057341E-08    2.3729067E-08    3.9680562E+06    5.9701885E-08    3.9680749E+06
   -2.94   400.000    1.984E+00    3.9837242E+06    2.5474904E-08    2.4139095E-08    3.9837242E+06    6.2214310E-08    3.9837491E+06
   -2.93   400.000    1.913E+00    3.9902170E+06    2.5910182E-08    2.4568881E-08    3.9902170E+06    6.4732966E-08    3.9902501E+06
   -2.92   400.000    1.839E+00    3.9871450E+06    2.6321844E-08    2.4976455E-08    3.9871450E+06    6.7138142E-08    3.9871889E+06
   -2.91   400.000    1.761E+00    3.9747706E+06    2.6670376E-08    2.5321381E-08    3.9747706E+06    6.9301588E-08    3.9748288E+06
   -2.90   400.000    1.680E+00    3.9537249E+06    2.6920596E-08    2.5567611E-08    3.9537249E+06    7.1094895E-08    3.9538018E+06
   -2.89   400.000    1.596E+00    3.9246930E+06    2.7042089E-08    2.5684242E-08    3.9246930E+06    7.2398302E-08    3.9247941E+06
   -2.88   400.000    1.511E+00    3.8881756E+06    2.7009386E-08    2.5645855E-08    3.8881756E+06    7.3111295E-08    3.8883080E+06
   -2.87   400.000    1.424E+00    3.8443963E+06    2.6803054E-08    2.5433546E-08    3.8443963E+06    7.3163861E-08    3.8445686E+06
   -2.86   400.000    1.338E+00    3.7933595E+06    2.6411332E-08    2.5036359E-08    3.7933595E+06    7.2524466E-08    3.7935820E+06
   -2.85   400.000    1.253E+00    3.7350144E+06    2.5831165E-08    2.4452057E-08    3.7350144E+06    7.1200916E-08    3.7352991E+06
   -2.84   400.000    1.170E+00    3.6694679E+06    2.5068071E-08    2.3686779E-08    3.6694679E+06    6.9233851E-08    3.6698280E+06
   -2.83   400.000    1.090E+00    3.5971831E+06    2.4135391E-08    2.2754158E-08    3.5971831E+06    6.6686857E-08    3.5976325E+06
   -2.82   400.000    1.014E+00    3.5190977E+06    2.3053750E-08    2.1674756E-08    3.5190977E+06    6.3638407E-08    3.5196501E+06
   -2.81   400.000    9.423E-01    3.4365949E+06    2.1850803E-08    2.0475881E-08    3.4365949E+06    6.0178245E-08    3.4372628E+06
   -2.80   400.000    8.758E-01    3.3513016E+06    2.0560461E-08    1.9190986E-08    3.3513016E+06    5.6406804E-08    3.3520952E+06
   -2.79   400.000    8.142E-01    3.2647724E+06    1.9220729E-08    1.7857713E-08    3.2647724E+06    5.2433989E-08    3.2656987E+06
   -2.78   400.000    7.575E-01    3.1781922E+06    1.7870075E-08    1.6514440E-08    3.1781922E+06    4.8374474E-08    3.1792546E+06
   -2.77   400.000    7.055E-01    3.0922270E+06    1.6543235E-08    1.5196125E-08    3.0922270E+06    4.4339461E-08    3.0934257E+06
   -2.76   400.000    6.578E-01    3.0070651E+06    1.5267814E-08    1.3930809E-08    3.0070651E+06    4.0427425E-08    3.0083971E+06
   -2.75   400.000    6.143E-01    2.9225927E+06    1.4062717E-08    1.2737861E-08    2.9225927E+06    3.6717059E-08    2.9240526E+06
   -2.74   400.000    5.744E-01    2.8386061E+06    1.2938565E-08    1.1628211E-08    2.8386061E+06    3.3264370E-08    2.8401866E+06
   -2.73   400.000    5.378E-01    2.7549771E+06    1.1899487E-08    1.0606017E-08    2.7549771E+06    3.0103747E-08    2.7566702E+06
   -2.72   400.000    5.042E-01    2.6717359E+06    1.0945410E-08    9.6709518E-09    2.6717359E+06    2.7251470E-08    2.6735329E+06
   -2.71   400.000    4.731E-01    2.5890695E+06    1.0074187E-08    8.8204313E-09    2.5890695E+06    2.4709911E-08    2.5909624E+06
   -2.70   400.000    4.444E-01    2.5072598E+06    9.2832194E-09    8.0513931E-09    2.5072598E+06    2.2471270E-08    2.5092418E+06
   -2.69   400.000    4.178E-01    2.4265828E+06    8.5702484E-09    7.3612332E-09    2.4265828E+06    2.0520171E-08    2.4286484E+06
   -2.68   400.000    3.930E-01    2.3471981E+06    7.9330387E-09    6.7475569E-09    2.3471981E+06    1.8834910E-08    2.3493428E+06
   -2.67   400.000    3.699E-01    2.2690626E+06    7.3680225E-09    6.2068082E-09    2.2690626E+06    1.7387699E-08    2.2712823E+06
   -2.66   400.000    3.481E-01    2.1919092E+06    6.8686503E-09    5.7325605E-09    2.1919092E+06    1.6144982E-08    2.1941997E+06
   -2.65   400.000    3.278E-01    2.1153236E+06    6.4246290E-09    5.3146850E-09    2.1153236E+06    1.5069089E-08    2.1176800E+06
   -2.64   400.000    3.085E-01    2.0389095E+06    6.0228408E-09    4.9402063E-09    2.0389095E+06    1.4121751E-08    2.0413263E+06
   -2.63   400.000    2.904E-01    1.9624785E+06    5.6496602E-09    4.5955667E-09    1.9624785E+06    1.3268531E-08    1.9649502E+06
   -2.62   400.000    2.733E-01    1.8861571E+06    5.2934521E-09    4.2691062E-09    1.8861571E+06    1.2482272E-08    1.8886783E+06
   -2.61   400.000    2.570E-01    1.8103357E+06    4.9460660E-09    3.9525951E-09    1.8103357E+06    1.1744047E-08    1.8129016E+06
   -2.60   400.000    2.416E-01    1.7354796E+06    4.6030603E-09    3.6415507E-09    1.7354796E+06    1.1041697E-08    1.7380855E+06
   -2.59   400.000    2.269E-01    1.6619108E+06    4.2632669E-09    3.3348970E-09    1.6619108E+06    1.0367440E-08    1.6645521E+06
   -2.58   400.000    2.129E-01    1.5896867E+06    3.9283323E-09    3.0345350E-09    1.5896867E+06    9.7161159E-09    1.5923585E+06
   -2.57   400.000    1.996E-01    1.5186252E+06    3.6022320E-09    2.7447842E-09    1.5186252E+06    9.0845148E-09    1.5213219E+06
   -2.56   400.000    1.869E-01    1.4484333E+06    3.2903519E-09    2.4713127E-09    1.4484333E+06    8.4711970E-09    1.4511490E+06
   -2.55   400.000    1.748E-01    1.3788509E+06    2.9980363E-09    2.2195278E-09    1.3788509E+06    7.8761361E-09    1.3815798E+06
   -2.54   400.000    1.632E-01    1.3097404E+06    2.7291084E-09    1.9930027E-09    1.3097404E+06    7.3001132E-09    1.3124775E+06
   -2.53   400.000    1.521E-01    1.2411053E+06    2.4850616E-09    1.7926764E-09    1.2411053E+06    6.7442092E-09    1.2438475E+06
   -2.52   400.000    1.415E-01    1.1730586E+06    2.2652198E-09    1.6171144E-09    1.1730586E+06    6.2096703E-09    1.1758051E+06
   -2.51   400.000    1.314E-01    1.1057687E+06    2.0675831E-09    1.4635050E-09    1.1057687E+06    5.6981207E-09    1.1085215E+06
   -2.50   400.000    1.217E-01    1.0394061E+06    1.8897792E-09    1.3287518E-09    1.0394061E+06    5.2118597E-09    1.0421687E+06
   -2.49   400.000    1.124E-01    9.7410374E+05    1.7296453E-09    1.2101396E-09    9.7410374E+05    4.7539178E-09    9.7687988E+05
   -2.48   400.000    1.035E-01    9.0994014E+05    1.5852905E-09    1.1054171E-09    9.0994014E+05    4.3276821E-09    9.1273147E+05
   -2.47   400.000    9.504E-02    8.4694401E+05    1.4548043E-09    1.0124807E-09    8.4694401E+05    3.9361710E-09    8.4974812E+05
   -2.46   400.000    8.692E-02    7.8511736E+05    1.3359304E-09    9.2901578E-10    7.8511736E+05    3.5812480E-09    7.8792669E+05
   -2.45   400.000    7.917E-02    7.2446823E+05    1.2259853E-09    8.5239235E-10    7.2446823E+05    3.2630592E-09    7.2727006E+05
   -2.44   400.000    7.179E-02    6.6504269E+05    1.1221089E-09    7.7989896E-10    6.6504269E+05    2.9798111E-09    6.6782014E+05
   -2.43   400.000    6.475E-02    6.0694488E+05    1.0217268E-09    7.0917961E-10    6.0694488E+05    2.7278638E-09    6.0967861E+05
   -2.42   400.000    5.807E-02    5.5033883E+05    9.2300390E-10    6.3864856E-10    5.5033883E+05    2.5021104E-09    5.5300864E+05
   -2.41   400.000    5.174E-02    4.9543583E+05    8.2511920E-10    5.6771746E-10    4.9543583E+05    2.2966309E-09    4.9802182E+05
   -2.40   400.000    4.576E-02    4.4247966E+05    7.2830389E-10    4.9678927E-10    4.4247966E+05    2.1055416E-09    4.4496264E+05
   -2.39   400.000    4.015E-02    3.9173879E+05    6.3367193E-10    4.2705981E-10    3.9173879E+05    1.9238264E-09    3.9410035E+05
   -2.38   400.000    3.492E-02    3.4350371E+05    5.4290561E-10    3.6019653E-10    3.4350371E+05    1.7478920E-09    3.4572630E+05
   -2.37   400.000    3.007E-02    2.9808002E+05    4.5786669E-10    2.9796420E-10    2.9808002E+05    1.5757120E-09    3.0014735E+05
   -2.36   400.000    2.562E-02    2.5577212E+05    3.8021454E-10    2.4187067E-10    2.5577212E+05    1.4066434E-09    2.5766999E+05
   -2.35   400.000    2.158E-02    2.1686078E+05    3.1111877E-10    1.9290890E-10    2.1686078E+05    1.2411363E-09    2.1857800E+05
   -2.34   400.000    1.796E-02    1.8157975E+05    2.5112794E-10    1.5145045E-10    1.8157975E+05    1.0805024E-09    1.8310913E+05
   -2.33   400.000    1.476E-02    1.5009324E+05    2.0019662E-10    1.1729386E-10    1.5009324E+05    9.2673818E-10    1.5143244E+05
   -2.32   400.000    1.199E-02    1.2247415E+05    1.5781638E-10    8.9816059E-11    1.2247415E+05    7.8228483E-10    1.2362617E+05
   -2.31   400.000    9.617E-03    9.8686239E+04    1.2317831E-10    6.8153803E-11    9.8686239E+04    6.4964442E-10    9.9659504E+04
   -2.30   400.000    7.629E-03    7.8577069E+04    9.5317423E-11    5.1360290E-11    7.8577069E+04    5.3091464E-10    7.9384827E+04
   -2.29   400.000    5.990E-03    6.1886600E+04    7.3222446E-11    3.8515549E-11    6.1886600E+04    4.2739761E-10    6.2545778E+04
   -2.28   400.000    4.660E-03    4.8271347E+04    5.5913369E-11    2.8792188E-11    4.8271347E+04    3.3941707E-10    4.8801024E+04
   -2.27   400.000    3.597E-03    3.7338099E+04    4.2492625E-11    2.1486350E-11    3.7338099E+04    2.6637365E-10    3.7757932E+04
   -2.26   400.000    2.758E-03    2.8679046E+04    3.2174186E-11    1.6024171E-11    2.8679046E+04    2.0696995E-10    2.9007927E+04
   -2.25   400.000    2.103E-03    2.1901417E+04    2.4294365E-11    1.1952773E-11    2.1901417E+04    1.5949958E-10    2.2156532E+04
   -2.24   400.000    1.597E-03    1.6648016E+04    1.8309003E-11    8.9233148E-12    1.6648016E+04    1.2211295E-10    1.6844329E+04
   -2.23   400.000    1.209E-03    1.2608249E+04    1.3782178E-11    6.6716493E-12    1.2608249E+04    9.3014161E-11    1.2758346E+04
   -2.22   400.000    9.120E-04    9.5213526E+03    1.0370918E-11    5.0000415E-12    9.5213526E+03    7.0580714E-11    9.6355321E+03
   -2.21   400.000    6.868E-04    7.1742945E+03    7.8091326E-12    3.7615844E-12    7.1742945E+03    5.3418768E-11    7.2608086E+03
   -2.20   400.000    5.164E-04    5.3966714E+03    5.8926662E-12    2.8477324E-12    5.3966714E+03    4.0373885E-11    5.4620234E+03
   -2.19   400.000    3.878E-04    4.0543728E+03    4.4663691E-12    2.1787258E-12    4.0543728E+03    3.0515607E-11    4.1036237E+03
   -2.18   400.000    2.909E-04    3.0431550E+03    3.4134357E-12    1.6964360E-12    3.0431550E+03    2.3109595E-11    3.0802055E+03
   -2.17   400.000    2.181E-04    2.2827539E+03    2.6469090E-12    1.3591273E-12    2.2827539E+03    1.7586165E-11    2.3105887E+03
   -2.16   400.000    1.633E-04    1.7118157E+03    2.1031002E-12    1.1377035E-12    1.7118157E+03    1.3510240E-11    1.7327056E+03
   -2.15   400.000    1.223E-04    1.2837026E+03    1.7366336E-12    1.0131019E-12    1.2837026E+03    1.0555121E-11    1.2993683E+03
   -2.14   400.000    9.142E-05    9.6311910E+02    1.5168487E-12    9.7459115E-13    9.6311910E+02    8.4809501E-12    9.7486031E+02
   -2.13   400.000    6.827E-05    7.2345143E+02    1.4253401E-12    1.0188087E-12    7.2345143E+02    7.1179089E-12    7.3224744E+02
   -2.12   400.000    5.086E-05    5.4469989E+02    1.4544754E-12    1.1494448E-12    5.4469989E+02    6.3538340E-12    5.5128732E+02
   -2.11   400.000    3.775E-05    4.1189031E+02    1.6067903E-12    1.3775368E-12    4.1189031E+02    6.1258488E-12    4.1682250E+02
   -2.10   400.000    2.783E-05    3.1386504E+02    1.8952272E-12    1.7223926E-12    3.1386504E+02    6.4156756E-12    3.1755722E+02
   -2.09   400.000    2.026E-05    2.4237115E+02    2.3442428E-12    2.2132193E-12    2.4237115E+02    7.2484439E-12    2.4513470E+02
   -2.08   400.000    1.440E-05    1.9137995E+02    2.9918849E-12    2.8915905E-12    1.9137995E+02    8.6950137E-12    1.9344821E+02
   -2.07   400.000    9.767E-06    1.5658668E+02    3.8930137E-12    3.8149611E-12    1.5658668E+02    1.0878077E-11    1.5813447E+02
   -2.06   400.000    5.957E-06    1.3505155E+02    5.1239401E-12    5.0615224E-12    1.3505155E+02    1.3982583E-11    1.3620977E+02
   -2.05   400.000    2.651E-06    1.2495373E+02    6.7888709E-12    6.7368043E-12    1.2495373E+02    1.8271391E-11    1.2582040E+02
   -2.04   400.000   -4.300E-07    1.2543857E+02    9.0286985E-12    8.9825766E-12    1.2543857E+02    2.4107451E-11    1.2608706E+02
   -2.03   400.000   -3.547E-06    1.3654559E+02    1.2032865E-11    1.1988788E-11    1.3654559E+02    3.1984376E-11    1.3703080E+02
   -2.02   400.000   -6.964E-06    1.5921123E+02    1.6055283E-11    1.6009530E-11    1.5921123E+02    4.2567918E-11    1.5957428E+02
   -2.01   400.000   -1.097E-05    1.9534660E+02    2.1435607E-11    2.1384325E-11    1.9534660E+02    5.6751755E-11    1.9561824E+02
   -2.00   400.000   -1.590E-05    2.4799596E+02    2.8627585E-11    2.8566474E-11    2.4799596E+02    7.5732078E-11    2.4819920E+02
   -1.99   400.000   -2.218E-05    3.2158839E+02    3.8236737E-11    3.8160696E-11    3.2158839E+02    1.0110692E-10    3.2174045E+02
   -1.98   400.000   -3.032E-05    4.2230179E+02    5.1070286E-11    5.0973014E-11    4.2230179E+02    1.3500793E-10    4.2241556E+02
   -1.97   400.000   -4.102E-05    5.5856607E+02    6.8203115E-11    6.8076620E-11    5.5856607E+02    1.8027459E-10    5.5865120E+02
   -1.96   400.000   -5.516E-05    7.4174151E+02    9.1064507E-11    9.0898513E-11    7.4174151E+02    2.4068330E-10    7.4180520E+02
   -1.95   400.000   -7.392E-05    9.8701750E+02    1.2155158E-10    1.2133280E-10    9.8701750E+02    3.2124722E-10    9.8706515E+02
   -1.94   400.000   -9.884E-05    1.3145870E+03    1.6217652E-10    1.6188779E-10    1.3145870E+03    4.2860544E-10    1.3146227E+03
   -1.93   400.000   -1.320E-04    1.7511598E+03    2.1625579E-10    2.1587505E-10    1.7511598E+03    5.7152315E-10    1.7511864E+03
   -1.92   400.000   -1.760E-04    2.3318796E+03    2.8814996E-10    2.8764908E-10    2.3318796E+03    7.6152596E-10    2.3318996E+03
   -1.91   400.000   -2.343E-04    3.1027033E+03    3.8356220E-10    3.8290580E-10    3.1027033E+03    1.0136897E-09    3.1027182E+03
   -1.90   400.000   -3.116E-04    4.1232660E+03    5.0990038E-10    5.0904475E-10    4.1232660E+03    1.3475996E-09    4.1232772E+03
   -1.89   400.000   -4.135E-04    5.4701930E+03    6.7670136E-10    6.7559363E-10    5.4701930E+03    1.7884751E-09    5.4702014E+03
   -1.88   400.000   -5.475E-04    7.2406934E+03    8.9610311E-10    8.9468093E-10    7.2406934E+03    2.3684266E-09    7.2406996E+03
   -1.87   400.000   -7.229E-04    9.5560778E+03    1.1833314E-09    1.1815230E-09    9.5560778E+03    3.1277572E-09    9.5560824E+03
   -1.86   400.000   -9.510E-04    1.2564574E+04    1.5571389E-09    1.5548626E-09    1.2564574E+04    4.1161545E-09    1.2564577E+04
   -1.85   400.000   -1.245E-03    1.6442508E+04    2.0400995E-09    2.0372604E-09    1.6442508E+04    5.3935248E-09    1.6442510E+04
   -1.84   400.000   -1.621E-03    2.1392684E+04    2.6586181E-09    2.6550967E-09    2.1392684E+04    7.0301171E-09    2.1392685E+04
   -1.83   400.000   -2.096E-03    2.7638821E+04    3.4424746E-09    3.4380990E-09    2.7638821E+04    9.1054654E-09    2.7638823E+04
   -1.82   400.000   -2.689E-03    3.5415426E+04    4.4236718E-09    4.4181658E-09    3.5415426E+04    1.1705538E-08    3.5415427E+04
   -1.81   400.000   -3.417E-03    4.4953579E+04    5.6343268E-09    5.6272335E-09    4.4953579E+04    1.4917334E-08    4.4953580E+04
   -1.80   400.000   -4.298E-03    5.6464631E+04    7.1033627E-09    7.0939617E-09    5.6464631E+04    1.8820091E-08    5.6464632E+04
   -1.79   400.000   -5.346E-03    7.0125038E+04    8.8519062E-09    8.8391695E-09    7.0125038E+04    2.3472471E-08    7.0125038E+04
   -1.78   400.000   -6.572E-03    8.6065761E+04    1.0887656E-08    1.0870301E-08    8.6065761E+04    2.8895884E-08    8.6065761E+04
   -1.77   400.000   -7.982E-03    1.0436845E+05    1.3199038E-08    1.3175703E-08    1.0436845E+05    3.5055609E-08    1.0436845E+05
   -1.76   400.000   -9.581E-03    1.2506837E+05    1.5750560E-08    1.5720057E-08    1.2506837E+05    4.1843663E-08    1.2506837E+05
   -1.75   400.000   -1.137E-02    1.4816186E+05    1.8481344E-08    1.8442831E-08    1.4816186E+05    4.9070177E-08    1.4816186E+05
   -1.74   400.000   -1.334E-02    1.7361480E+05    2.1309162E-08    2.1262086E-08    1.7361480E+05    5.6472647E-08    1.7361480E+05
   -1.73   400.000   -1.549E-02    2.0136902E+05    2.4142076E-08    2.4085841E-08    2.0136902E+05    6.3752165E-08    2.0136902E+05
   -1.72   400.000   -1.781E-02    2.3134532E+05    2.6898047E-08    2.6831534E-08    2.3134532E+05    7.0638830E-08    2.3134532E+05
   -1.71   400.000   -2.029E-02    2.6344474E+05    2.9528980E-08    2.9450189E-08    2.6344474E+05    7.6973388E-08    2.6344474E+05
   -1.70   400.000   -2.294E-02    2.9755196E+05    3.2040915E-08    3.1946887E-08    2.9755196E+05    8.2775055E-08    2.9755196E+05
   -1.69   400.000   -2.574E-02    3.3354412E+05    3.4499753E-08    3.4386759E-08    3.3354412E+05    8.8259571E-08    3.3354412E+05
   -1.68   400.000   -2.868E-02    3.7130412E+05    3.7015238E-08    3.6879056E-08    3.7130412E+05    9.3786062E-08    3.7130412E+05
   -1.67   400.000   -3.176E-02    4.1073268E+05    3.9704349E-08    3.9540463E-08    4.1073268E+05    9.9741247E-08    4.1073268E+05
   -1.66   400.000   -3.498E-02    4.5175289E+05    4.2644877E-08    4.2448590E-08    4.5175289E+05    1.0639839E-07    4.5175289E+05
   -1.65   400.000   -3.833E-02    4.9430509E+05    4.5836110E-08    4.5602606E-08    4.9430509E+05    1.1380188E-07    4.9430509E+05
   -1.64   400.000   -4.180E-02    5.3833614E+05    4.9183249E-08    4.8907715E-08    5.3833614E+05    1.2172236E-07    5.3833614E+05
   -1.63   400.000   -4.539E-02    5.8378776E+05    5.2514725E-08    5.2192551E-08    5.8378776E+05    1.2970393E-07    5.8378776E+05
   -1.62   400.000   -4.911E-02    6.3058751E+05    5.5628628E-08    5.5255753E-08    6.3058751E+05    1.3719069E-07    6.3058751E+05
   -1.61   400.000   -5.293E-02    6.7864546E+05    5.8351553E-08    5.7924977E-08    6.7864546E+05    1.4368708E-07    6.7864546E+05
   -1.60   400.000   -5.687E-02    7.2785971E+05    6.0587374E-08    6.0105856E-08    7.2785971E+05    1.4889286E-07    7.2785971E+05
   -1.59   400.000   -6.092E-02    7.7812932E+05    6.2338638E-08    6.1803511E-08    7.7812932E+05    1.5276687E-07    7.7812932E+05
   -1.58   400.000   -6.507E-02    8.2936876E+05    6.3696056E-08    6.3111977E-08    8.2936876E+05    1.5550653E-07    8.2936876E+05
   -1.57   400.000   -6.933E-02    8.8151979E+05    6.4804647E-08    6.4179995E-08    8.8151979E+05    1.5746404E-07    8.8151979E+05
   -1.56   400.000   -7.370E-02    9.3456272E+05    6.5822976E-08    6.5169621E-08    9.3456272E+05    1.5904237E-07    9.3456272E+05
   -1.55   400.000   -7.816E-02    9.8852680E+05    6.6891835E-08    6.6224047E-08    9.8852680E+05    1.6061564E-07    9.8852680E+05
   -1.54   400.000   -8.272E-02    1.0434905E+06    6.8120710E-08    6.7453231E-08    1.0434905E+06    1.6249816E-07    1.0434905E+06
   -1.53   400.000   -8.739E-02    1.0995615E+06    6.9589572E-08    6.8935245E-08    1.0995615E+06    1.6495599E-07    1.0995615E+06
   -1.52   400.000   -9.215E-02    1.1568386E+06    7.1357412E-08    7.0725083E-08    1.1568386E+06    1.6823523E-07    1.1568386E+06
   -1.51   400.000   -9.700E-02    1.2153727E+06    7.3470332E-08    7.2863803E-08    1.2153727E+06    1.7258216E-07    1.2153727E+06
   -1.50   400.000   -1.020E-01    1.2751360E+06    7.5966752E-08    7.5385262E-08    1.2751360E+06    1.7824296E-07    1.2751360E+06
   -1.49   400.000   -1.070E-01    1.3360040E+06    7.8880161E-08    7.8320306E-08    1.3360040E+06    1.8544219E-07    1.3360040E+06
   -1.48   400.000   -1.121E-01    1.3977607E+06    8.2238897E-08    8.1697311E-08    1.3977607E+06    1.9434393E-07    1.3977607E+06
   -1.47   400.000   -1.174E-01    1.4601455E+06    8.6059349E-08    8.5535121E-08    1.4601455E+06    2.0500007E-07    1.4601455E+06
   -1.46   400.000   -1.227E-01    1.5229441E+06    9.0328248E-08    8.9824183E-08    1.5229441E+06    2.1729031E-07    1.5229441E+06
   -1.45   400.000   -1.281E-01    1.5860842E+06    9.4976009E-08    9.4498374E-08    1.5860842E+06    2.3086794E-07    1.5860842E+06
   -1.44   400.000   -1.336E-01    1.6496806E+06    9.9854277E-08    9.9411435E-08    1.6496806E+06    2.4514070E-07    1.6496806E+06
   -1.43   400.000   -1.392E-01    1.7139919E+06    1.0473670E-07    1.0433744E-07    1.7139919E+06    2.5932042E-07    1.7139919E+06
   -1.42   400.000   -1.448E-01    1.7793066E+06    1.0935323E-07    1.0900552E-07    1.7793066E+06    2.7255205E-07    1.7793066E+06
   -1.41   400.000   -1.506E-01    1.8458161E+06    1.1344902E-07    1.1315931E-07    1.8458161E+06    2.8408923E-07    1.8458161E+06
   -1.40   400.000   -1.565E-01    1.9135381E+06    1.1684359E-07    1.1661659E-07    1.9135381E+06    2.9345236E-07    1.9135381E+06
   -1.39   400.000   -1.624E-01    1.9823194E+06    1.1946692E-07    1.1930562E-07    1.9823194E+06    3.0051078E-07    1.9823194E+06
   -1.38   400.000   -1.684E-01    2.0519049E+06    1.2136123E-07    1.2126748E-07    2.0519049E+06    3.0546388E-07    2.0519049E+06
   -1.37   400.000   -1.745E-01    2.1220373E+06    1.2265100E-07    1.2262682E-07    2.1220373E+06    3.0873085E-07    2.1220373E+06
   -1.36   400.000   -1.807E-01    2.1925441E+06    1.2349182E-07    1.2354105E-07    2.1925441E+06    3.1078358E-07    2.1925441E+06
   -1.35   400.000   -1.870E-01    2.2633784E+06    1.2401525E-07    1.2414489E-07    2.2633784E+06    3.1197868E-07    2.2633784E+06
   -1.34   400.000   -1.933E-01    2.3345945E+06    1.2429269E-07    1.2451279E-07    2.3345945E+06    3.1245863E-07    2.3345945E+06
   -1.33   400.000   -1.998E-01    2.4062697E+06    1.2433793E-07    1.2465986E-07    2.4062697E+06    3.1217766E-07    2.4062697E+06
   -1.32   400.000   -2.063E-01    2.4784211E+06    1.2414908E-07    1.2458281E-07    2.4784211E+06    3.1104886E-07    2.4784211E+06
   -1.31   400.000   -2.129E-01    2.5509704E+06    1.2376389E-07    1.2431545E-07    2.5509704E+06    3.0913061E-07    2.5509704E+06
   -1.30   400.000   -2.196E-01    2.6237791E+06    1.2328860E-07    1.2395898E-07    2.6237791E+06    3.0673418E-07    2.6237791E+06
   -1.29   400.000   -2.264E-01    2.6967316E+06    1.2287696E-07    1.2366290E-07    2.6967316E+06    3.0438150E-07    2.6967316E+06
   -1.28   400.000   -2.333E-01    2.7698135E+06    1.2267203E-07    1.2356869E-07    2.7698135E+06    3.0264429E-07    2.7698135E+06
   -1.27   400.000   -2.402E-01    2.8431332E+06    1.2274996E-07    1.2375443E-07    2.8431332E+06    3.0196873E-07    2.8431332E+06
   -1.26   400.000   -2.472E-01    2.9168628E+06    1.2310089E-07    1.2421503E-07    2.9168628E+06    3.0257866E-07    2.9168628E+06
   -1.25   400.000   -2.543E-01    2.9911311E+06    1.2365270E-07    1.2488392E-07    2.9911311E+06    3.0447757E-07    2.9911311E+06
   -1.24   400.000   -2.615E-01    3.0659437E+06    1.2431510E-07    1.2567434E-07    3.0659437E+06    3.0750445E-07    3.0659437E+06
   -1.23   400.000   -2.688E-01    3.1411948E+06    1.2501413E-07    1.2651164E-07    3.1411948E+06    3.1138828E-07    3.1411948E+06
   -1.22   400.000   -2.761E-01    3.2167627E+06    1.2570124E-07    1.2734180E-07    3.2167627E+06    3.1577850E-07    3.2167627E+06
   -1.21   400.000   -2.836E-01    3.2926055E+06    1.2634040E-07    1.2811998E-07    3.2926055E+06    3.2025986E-07    3.2926055E+06
   -1.20   400.000   -2.911E-01    3.3687824E+06    1.2688632E-07    1.2879166E-07    3.3687824E+06    3.2436441E-07    3.3687824E+06
   -1.19   400.000   -2.987E-01    3.4453974E+06    1.2726660E-07    1.2927764E-07    3.4453974E+06    3.2758534E-07    3.4453974E+06
   -1.18   400.000   -3.064E-01    3.5225140E+06    1.2737700E-07    1.2947148E-07    3.5225140E+06    3.2939997E-07    3.5225140E+06
   -1.17   400.000   -3.141E-01    3.6000911E+06    1.2709769E-07    1.2925621E-07    3.6000911E+06    3.2932097E-07    3.6000911E+06
   -1.16   400.000   -3.220E-01    3.6779674E+06    1.2633376E-07    1.2854356E-07    3.6779674E+06    3.2699456E-07    3.6779674E+06
   -1.15   400.000   -3.299E-01    3.7559090E+06    1.2507054E-07    1.2732670E-07    3.7559090E+06    3.2233450E-07    3.7559090E+06
   -1.14   400.000   -3.379E-01    3.8337165E+06    1.2341819E-07    1.2572207E-07    3.8337165E+06    3.1563529E-07    3.8337165E+06
   -1.13   400.000   -3.460E-01    3.9113377E+06    1.2161542E-07    1.2397110E-07    3.9113377E+06    3.0758914E-07    3.9113377E+06
   -1.12   400.000   -3.542E-01    3.9889152E+06    1.1997994E-07    1.2238984E-07    3.9889152E+06    2.9916879E-07    3.9889152E+06
   -1.11   400.000   -3.625E-01    4.0667299E+06    1.1882452E-07    1.2128555E-07    4.0667299E+06    2.9141498E-07    4.0667299E+06
   -1.10   400.000   -3.709E-01    4.1450861E+06    1.1837907E-07    1.2087985E-07    4.1450861E+06    2.8522331E-07    4.1450861E+06
   -1.09   400.000   -3.793E-01    4.2242145E+06    1.1875337E-07    1.2127344E-07    4.2242145E+06    2.8121814E-07    4.2242145E+06
   -1.08   400.000   -3.878E-01    4.3042309E+06    1.1994948E-07    1.2246080E-07    4.3042309E+06    2.7974159E-07    4.3042309E+06
   -1.07   400.000   -3.964E-01    4.3851311E+06    1.2190485E-07    1.2437596E-07    4.3851311E+06    2.8092088E-07    4.3851311E+06
   -1.06   400.000   -4.051E-01    4.4667930E+06    1.2453753E-07    1.2693977E-07    4.4667930E+06    2.8475175E-07    4.4667930E+06
   -1.05   400.000   -4.139E-01    4.5489995E+06    1.2777354E-07    1.3008769E-07    4.5489995E+06    2.9115318E-07    4.5489995E+06
   -1.04   400.000   -4.228E-01    4.6315141E+06    1.3155228E-07    1.3377344E-07    4.6315141E+06    2.9998268E-07    4.6315141E+06
   -1.03   400.000   -4.317E-01    4.7141924E+06    1.3581441E-07    1.3795331E-07    4.7141924E+06    3.1101854E-07    4.7141924E+06
   -1.02   400.000   -4.408E-01    4.7970503E+06    1.4047642E-07    1.4255685E-07    4.7970503E+06    3.2391630E-07    4.7970503E+06
   -1.01   400.000   -4.499E-01    4.8802046E+06    1.4539712E-07    1.4745084E-07    4.8802046E+06    3.3815009E-07    4.8802046E+06
   -1.00   400.000   -4.592E-01    4.9636952E+06    1.5034916E-07    1.5241019E-07    4.9636952E+06    3.5296733E-07    4.9636952E+06
   -0.99   400.000   -4.685E-01    5.0472967E+06    1.5501649E-07    1.5711590E-07    5.0472967E+06    3.6740052E-07    5.0472967E+06
   -0.98   400.000   -4.779E-01    5.1304590E+06    1.5903428E-07    1.6119558E-07    5.1304590E+06    3.8037089E-07    5.1304590E+06
   -0.97   400.000   -4.874E-01    5.2124443E+06    1.6206950E-07    1.6430444E-07    5.2124443E+06    3.9088123E-07    5.2124443E+06
   -0.96   400.000   -4.970E-01    5.2926254E+06    1.6391717E-07    1.6622271E-07    5.2926254E+06    3.9824904E-07    5.2926254E+06
   -0.95   400.000   -5.067E-01    5.3708209E+06    1.6457532E-07    1.6693299E-07    5.3708209E+06    4.0230181E-07    5.3708209E+06
   -0.94   400.000   -5.165E-01    5.4474934E+06    1.6426850E-07    1.6664712E-07    5.4474934E+06    4.0346294E-07    5.4474934E+06
   -0.93   400.000   -5.264E-01    5.5236723E+06    1.6341033E-07    1.6577145E-07    5.5236723E+06    4.0269377E-07    5.5236723E+06
   -0.92   400.000   -5.364E-01    5.6005936E+06    1.6251614E-07    1.6482044E-07    5.6005936E+06    4.0130183E-07    5.6005936E+06
   -0.91   400.000   -5.465E-01    5.6792207E+06    1.6208930E-07    1.6430216E-07    5.6792207E+06    4.0066128E-07    5.6792207E+06
   -0.90   400.000   -5.568E-01    5.7598889E+06    1.6251129E-07    1.6460644E-07    5.7598889E+06    4.0191786E-07    5.7598889E+06
   -0.89   400.000   -5.671E-01    5.8422397E+06    1.6396758E-07    1.6592880E-07    5.8422397E+06    4.0576532E-07    5.8422397E+06
   -0.88   400.000   -5.775E-01    5.9254407E+06    1.6643350E-07    1.6825444E-07    5.9254407E+06    4.1236533E-07    5.9254407E+06
   -0.87   400.000   -5.880E-01    6.0085481E+06    1.6972224E-07    1.7140450E-07    6.0085481E+06    4.2142668E-07    6.0085481E+06
   -0.86   400.000   -5.987E-01    6.0908403E+06    1.7356830E-07    1.7511806E-07    6.0908403E+06    4.3238385E-07    6.0908403E+06
   -0.85   400.000   -6.095E-01    6.1720057E+06    1.7770446E-07    1.7912840E-07    6.1720057E+06    4.4457285E-07    6.1720058E+06
   -0.84   400.000   -6.204E-01    6.2521581E+06    1.8190036E-07    1.8320237E-07    6.2521581E+06    4.5732803E-07    6.2521581E+06
   -0.83   400.000   -6.314E-01    6.3317204E+06    1.8596070E-07    1.8714045E-07    6.3317204E+06    4.6999756E-07    6.3317204E+06
   -0.82   400.000   -6.425E-01    6.4112581E+06    1.8970591E-07    1.9076003E-07    6.4112581E+06    4.8193548E-07    6.4112581E+06
   -0.81   400.000   -6.538E-01    6.4913304E+06    1.9296180E-07    1.9388712E-07    6.4913304E+06    4.9252923E-07    6.4913304E+06
   -0.80   400.000   -6.652E-01    6.5723842E+06    1.9556882E-07    1.9636660E-07    6.5723842E+06    5.0127271E-07    6.5723843E+06
   -0.79   400.000   -6.767E-01    6.6546625E+06    1.9740251E-07    1.9808253E-07    6.6546625E+06    5.0784567E-07    6.6546625E+06
   -0.78   400.000   -6.885E-01    6.7380885E+06    1.9838888E-07    1.9897254E-07    6.7380885E+06    5.1214674E-07    6.7380886E+06
   -0.77   400.000   -7.003E-01    6.8221432E+06    1.9850363E-07    1.9902594E-07    6.8221432E+06    5.1425472E-07    6.8221433E+06
   -0.76   400.000   -7.123E-01    6.9058304E+06    1.9775716E-07    1.9826728E-07    6.9058304E+06    5.1433805E-07    6.9058306E+06
   -0.75   400.000   -7.245E-01    6.9878331E+06    1.9617963E-07    1.9673929E-07    6.9878331E+06    5.1256940E-07    6.9878334E+06
   -0.74   400.000   -7.369E-01    7.0668543E+06    1.9382257E-07    1.9450191E-07    7.0668543E+06    5.0910492E-07    7.0668546E+06
   -0.73   400.000   -7.495E-01    7.1420003E+06    1.9078130E-07    1.9165222E-07    7.1420003E+06    5.0414532E-07    7.1420007E+06
   -0.72   400.000   -7.623E-01    7.2130328E+06    1.8722339E-07    1.8835141E-07    7.2130328E+06    4.9803426E-07    7.2130333E+06
   -0.71   400.000   -7.752E-01    7.2804069E+06    1.8339844E-07    1.8483451E-07    7.2804069E+06    4.9131531E-07    7.2804076E+06
   -0.70   400.000   -7.884E-01    7.3451175E+06    1.7961224E-07    1.8138589E-07    7.3451175E+06    4.8468867E-07    7.3451184E+06
   -0.69   400.000   -8.018E-01    7.4084163E+06    1.7616891E-07    1.7828348E-07    7.4084163E+06    4.7886846E-07    7.4084175E+06
   -0.68   400.000   -8.153E-01    7.4714535E+06    1.7330180E-07    1.7573235E-07    7.4714535E+06    4.7439629E-07    7.4714551E+06
   -0.67   400.000   -8.291E-01    7.5349094E+06    1.7111924E-07    1.7381359E-07    7.5349094E+06    4.7148668E-07    7.5349116E+06
   -0.66   400.000   -8.431E-01    7.5987306E+06    1.6958172E-07    1.7246529E-07    7.5987306E+06    4.6995786E-07    7.5987335E+06
   -0.65   400.000   -8.572E-01    7.6621036E+06    1.6851408E-07    1.7149843E-07    7.6621036E+06    4.6926403E-07    7.6621075E+06
   -0.64   400.000   -8.715E-01    7.7237187E+06    1.6764565E-07    1.7064011E-07    7.7237187E+06    4.6861436E-07    7.7237239E+06
   -0.63   400.000   -8.860E-01    7.7822110E+06    1.6666810E-07    1.6959275E-07    7.7822110E+06    4.6715080E-07    7.7822179E+06
   -0.62   400.000   -9.005E-01    7.8365618E+06    1.6530075E-07    1.6809874E-07    7.8365618E+06    4.6415218E-07    7.8365711E+06
   -0.61   400.000   -9.152E-01    7.8863096E+06    1.6335259E-07    1.6599931E-07    7.8863096E+06    4.5922186E-07    7.8863220E+06
   -0.60   400.000   -9.299E-01    7.9315890E+06    1.6076632E-07    1.6327291E-07    7.9315890E+06    4.5240195E-07    7.9316056E+06
   -0.59   400.000   -9.448E-01    7.9730976E+06    1.5762844E-07    1.6003839E-07    7.9730976E+06    4.4416217E-07    7.9731198E+06
   -0.58   400.000   -9.596E-01    8.0120201E+06    1.5413980E-07    1.5651846E-07    8.0120201E+06    4.3525821E-07    8.0120497E+06
   -0.57   400.000   -9.745E-01    8.0498277E+06    1.5055786E-07    1.5297703E-07    8.0498277E+06    4.2651906E-07    8.0498672E+06
   -0.56   400.000   -9.895E-01    8.0878807E+06    1.4713422E-07    1.4965528E-07    8.0878807E+06    4.1865230E-07    8.0879336E+06
   -0.55   400.000   -1.004E+00    8.1269084E+06    1.4406715E-07    1.4672729E-07    8.1269084E+06    4.1212702E-07    8.1269789E+06
   -0.54   400.000   -1.019E+00    8.1665950E+06    1.4147621E-07    1.4428117E-07    8.1665950E+06    4.0713722E-07    8.1666893E+06
   -0.53   400.000   -1.034E+00    8.2055094E+06    1.3939459E-07    1.4231952E-07    8.2055094E+06    4.0361304E-07    8.2056353E+06
   -0.52   400.000   -1.050E+00    8.2414470E+06    1.3777243E-07    1.4076994E-07    8.2414470E+06    4.0125115E-07    8.2416151E+06
   -0.51   400.000   -1.065E+00    8.2720478E+06    1.3648860E-07    1.3950115E-07    8.2720478E+06    3.9956180E-07    8.2722722E+06
   -0.50   400.000   -1.080E+00    8.2954231E+06    1.3537178E-07    1.3834465E-07    8.2954231E+06    3.9794566E-07    8.2957224E+06
   -0.49   400.000   -1.095E+00    8.3105400E+06    1.3422988E-07    1.3712155E-07    8.3105400E+06    3.9580318E-07    8.3109389E+06
   -0.48   400.000   -1.110E+00    8.3172733E+06    1.3288314E-07    1.3567058E-07    8.3172733E+06    3.9265525E-07    8.3178046E+06
   -0.47   400.000   -1.125E+00    8.3162480E+06    1.3119502E-07    1.3387367E-07    8.3162480E+06    3.8824218E-07    8.3169546E+06
   -0.46   400.000   -1.140E+00    8.3086896E+06    1.2909649E-07    1.3167622E-07    8.3086896E+06    3.8257414E-07    8.3096280E+06
   -0.45   400.000   -1.155E+00    8.2963768E+06    1.2660032E-07    1.2909966E-07    8.2963768E+06    3.7592253E-07    8.2976204E+06
   -0.44   400.000   -1.170E+00    8.2815686E+06    1.2380188E-07    1.2624243E-07    8.2815686E+06    3.6875895E-07    8.2832121E+06
   -0.43   400.000   -1.185E+00    8.2666946E+06    1.2086437E-07    1.2326652E-07    8.2666946E+06    3.6166062E-07    8.2688585E+06
   -0.42   400.000   -1.199E+00    8.2537429E+06    1.1799004E-07    1.2037028E-07    8.2537429E+06    3.5520737E-07    8.2565785E+06
   -0.41   400.000   -1.214E+00    8.2435334E+06    1.1538299E-07    1.1775263E-07    8.2435334E+06    3.4989157E-07    8.2472261E+06
   -0.40   400.000   -1.228E+00    8.2352347E+06    1.1321218E-07    1.1557723E-07    8.2352347E+06    3.4605411E-07    8.2400053E+06
   -0.39   400.000   -1.243E+00    8.2264504E+06    1.1158334E-07    1.1394512E-07    8.2264504E+06    3.4385123E-07    8.2325514E+06
   -0.38   400.000   -1.257E+00    8.2139616E+06    1.1052733E-07    1.1288373E-07    8.2139616E+06    3.4325484E-07    8.2216655E+06
   -0.37   400.000   -1.271E+00    8.1948749E+06    1.1000945E-07    1.1235710E-07    8.1948749E+06    3.4408952E-07    8.2044525E+06
   -0.36   400.000   -1.285E+00    8.1676795E+06    1.0995864E-07    1.1229554E-07    8.1676795E+06    3.4610483E-07    8.1793667E+06
   -0.35   400.000   -1.298E+00    8.1327401E+06    1.1030609E-07    1.1263384E-07    8.1327401E+06    3.4906556E-07    8.1466951E+06
   -0.34   400.000   -1.312E+00    8.0920445E+06    1.1101538E-07    1.1333984E-07    8.0920445E+06    3.5282408E-07    8.1083055E+06
   -0.33   400.000   -1.325E+00    8.0484194E+06    1.1208640E-07    1.1441621E-07    8.0484194E+06    3.5733324E-07    8.0668734E+06
   -0.32   400.000   -1.338E+00    8.0046562E+06    1.1352766E-07    1.1587124E-07    8.0046562E+06    3.6258159E-07    8.0250332E+06
   -0.31   400.000   -1.352E+00    7.9629439E+06    1.1531161E-07    1.1767416E-07    7.9629439E+06    3.6848274E-07    7.9848423E+06
   -0.30   400.000   -1.365E+00    7.9247412E+06    1.1734311E-07    1.1972523E-07    7.9247412E+06    3.7479651E-07    7.9476794E+06
   -0.29   400.000   -1.377E+00    7.8909345E+06    1.1946729E-07    1.2186592E-07    7.8909345E+06    3.8115393E-07    7.9144129E+06
   -0.28   400.000   -1.390E+00    7.8620022E+06    1.2151679E-07    1.2392858E-07    7.8620022E+06    3.8718592E-07    7.8855589E+06
   -0.27   400.000   -1.403E+00    7.8379940E+06    1.2336889E-07    1.2579472E-07    7.8379940E+06    3.9266939E-07    7.8612423E+06
   -0.26   400.000   -1.415E+00    7.8183331E+06    1.2497512E-07    1.2742388E-07    7.8183331E+06    3.9758125E-07    7.8409771E+06
   -0.25   400.000   -1.428E+00    7.8016112E+06    1.2634766E-07    1.2883744E-07    7.8016112E+06    4.0201984E-07    7.8234449E+06
   -0.24   400.000   -1.441E+00    7.7855680E+06    1.2751853E-07    1.3007428E-07    7.7855680E+06    4.0605275E-07    7.8064646E+06
   -0.23   400.000   -1.453E+00    7.7673480E+06    1.2850215E-07    1.3115042E-07    7.7673480E+06    4.0959691E-07    7.7872473E+06
   -0.22   400.000   -1.466E+00    7.7440106E+06    1.2928177E-07    1.3204444E-07    7.7440106E+06    4.1240247E-07    7.7629053E+06
   -0.21   400.000   -1.478E+00    7.7131893E+06    1.2982009E-07    1.3270935E-07    7.7131893E+06    4.1413768E-07    7.7311124E+06
   -0.20   400.000   -1.491E+00    7.6737766E+06    1.3007980E-07    1.3309613E-07    7.6737766E+06    4.1451614E-07    7.6907864E+06
   -0.19   400.000   -1.504E+00    7.6264784E+06    1.3004010E-07    1.3317358E-07    7.6264784E+06    4.1340188E-07    7.6426433E+06
   -0.18   400.000   -1.517E+00    7.5740471E+06    1.2970512E-07    1.3293969E-07    7.5740471E+06    4.1086159E-07    7.5894351E+06
   -0.17   400.000   -1.530E+00    7.5210085E+06    1.2910854E-07    1.3242759E-07    7.5210085E+06    4.0716799E-07    7.5356831E+06
   -0.16   400.000   -1.543E+00    7.4728188E+06    1.2831449E-07    1.3170655E-07    7.4728188E+06    4.0276047E-07    7.4868410E+06
   -0.15   400.000   -1.556E+00    7.4345986E+06    1.2740644E-07    1.3086977E-07    7.4345986E+06    3.9815392E-07    7.4480299E+06
   -0.14   400.000   -1.570E+00    7.4097709E+06    1.2645550E-07    1.3000075E-07    7.4097709E+06    3.9379029E-07    7.4226717E+06
   -0.13   400.000   -1.583E+00    7.3989773E+06    1.2547325E-07    1.2912348E-07    7.3989773E+06    3.8986169E-07    7.4114018E+06
   -0.12   400.000   -1.597E+00    7.3995895E+06    1.2437018E-07    1.2815780E-07    7.3995895E+06    3.8617363E-07    7.4115786E+06
   -0.11   400.000   -1.612E+00    7.4060307E+06    1.2294873E-07    1.2690932E-07    7.4060307E+06    3.8213147E-07    7.4176083E+06
   -0.10   400.000   -1.626E+00    7.4109806E+06    1.2095075E-07    1.2511480E-07    7.4109806E+06    3.7690223E-07    7.4221563E+06
   -0.09   400.000   -1.641E+00    7.4072509E+06    1.1815181E-07    1.2253663E-07    7.4072509E+06    3.6972138E-07    7.4180285E+06
   -0.08   400.000   -1.657E+00    7.3897494E+06    1.1446125E-07    1.1906524E-07    7.3897494E+06    3.6021462E-07    7.4001372E+06
   -0.07   400.000   -1.672E+00    7.3567712E+06    1.0997264E-07    1.1477344E-07    7.3567712E+06    3.4856497E-07    7.3667887E+06
   -0.06   400.000   -1.689E+00    7.3101262E+06    1.0493420E-07    1.0989096E-07    7.3101262E+06    3.3543239E-07    7.3198046E+06
   -0.05   400.000   -1.705E+00    7.2542194E+06    9.9658082E-08    1.0471685E-07    7.2542194E+06    3.2168345E-07    7.2635938E+06
   -0.04   400.000   -1.722E+00    7.1946848E+06    9.4421736E-08    9.9522696E-08    7.1946848E+06    3.0809373E-07    7.2037824E+06
   -0.03   400.000   -1.740E+00    7.1372018E+06    8.9408982E-08    9.4494005E-08    7.1372018E+06    2.9517062E-07    7.1460322E+06
   -0.02   400.000   -1.758E+00    7.0867710E+06    8.4706202E-08    8.9725095E-08    7.0867710E+06    2.8314548E-07    7.0953242E+06
   -0.01   400.000   -1.777E+00    7.0473468E+06    8.0338488E-08    8.5252367E-08    7.0473468E+06    2.7208690E-07    7.0556012E+06
    0.00   400.000   -1.796E+00    7.0215719E+06    7.6319318E-08    8.1100572E-08    7.0215719E+06    2.6204835E-07    7.0295080E+06
    0.01   400.000   -1.815E+00    7.0104576E+06    7.2691206E-08    7.7320858E-08    7.0104576E+06    2.5317582E-07    7.0180694E+06
    0.02   400.000   -1.834E+00    7.0130527E+06    6.9544074E-08    7.4008465E-08    7.0130527E+06    2.4573810E-07    7.0203501E+06
    0.03   400.000   -1.854E+00    7.0263276E+06    6.7009099E-08    7.1297818E-08    7.0263276E+06    2.4008548E-07    7.0333287E+06
    0.04   400.000   -1.874E+00    7.0455295E+06    6.5237294E-08    6.9343298E-08    7.0455295E+06    2.3658000E-07    7.0522483E+06
    0.05   400.000   -1.894E+00    7.0651042E+06    6.4379426E-08    6.8300779E-08    7.0651042E+06    2.3555264E-07    7.0715410E+06
    0.06   400.000   -1.913E+00    7.0799884E+06    6.4581476E-08    6.8323017E-08    7.0799884E+06    2.3732188E-07    7.0861301E+06
    0.07   400.000   -1.933E+00    7.0868583E+06    6.5999009E-08    6.9572361E-08    7.0868583E+06    2.4226716E-07    7.0926892E+06
    0.08   400.000   -1.952E+00    7.0849338E+06    6.8821944E-08    7.2243603E-08    7.0849338E+06    2.5091833E-07    7.0904506E+06
    0.09   400.000   -1.972E+00    7.0761683E+06    7.3295441E-08    7.6584173E-08    7.0761683E+06    2.6401503E-07    7.0813934E+06
    0.10   400.000   -1.991E+00    7.0649205E+06    7.9724414E-08    8.2899474E-08    7.0649205E+06    2.8250531E-07    7.0699048E+06
    0.11   400.000   -2.010E+00    7.0573214E+06    8.8454799E-08    9.1535201E-08    7.0573214E+06    3.0747294E-07    7.0621370E+06
    0.12   400.000   -2.029E+00    7.0605134E+06    9.9829643E-08    1.0283325E-07    7.0605134E+06    3.3999589E-07    7.0652360E+06
    0.13   400.000   -2.049E+00    7.0818349E+06    1.1412090E-07    1.1706199E-07    7.0818349E+06    3.8094206E-07    7.0865253E+06
    0.14   400.000   -2.068E+00    7.1279504E+06    1.3144072E-07    1.3432630E-07    7.1279504E+06    4.3071257E-07    7.1326381E+06
    0.15   400.000   -2.088E+00    7.2039005E+06    1.5164183E-07    1.5446921E-07    7.2039005E+06    4.8895621E-07    7.2085778E+06
    0.16   400.000   -2.108E+00    7.3121188E+06    1.7422613E-07    1.7698462E-07    7.3121188E+06    5.5430493E-07    7.3167473E+06
    0.17   400.000   -2.128E+00    7.4516150E+06    1.9829058E-07    2.0096837E-07    7.4516150E+06    6.2421072E-07    7.4561429E+06
    0.18   400.000   -2.149E+00    7.6176672E+06    2.2254459E-07    2.2513886E-07    7.6176672E+06    6.9498256E-07    7.6220515E+06
    0.19   400.000   -2.170E+00    7.8023548E+06    2.4542692E-07    2.4795250E-07    7.8023548E+06    7.6210911E-07    7.8065798E+06
    0.20   400.000   -2.192E+00    7.9959930E+06    2.6532804E-07    2.6782018E-07    7.9959930E+06    8.2089254E-07    8.0000784E+06
# T(K) = 500.00   Npoints =     441   V(cm^3) =  3.848E-22
   -4.20   500.000    9.778E+00    7.3972989E+05    3.2811505E-08    3.2920144E-08    7.3972989E+05    8.1746586E-08    7.4014254E+05
   -4.19   500.000    9.743E+00    7.8370600E+05    3.7455102E-08    3.7579228E-08    7.8370600E+05    9.3285688E-08    7.8411880E+05
   -4.18   500.000    9.705E+00    8.2684106E+05    4.2703444E-08    4.2843986E-08    8.2684106E+05    1.0627548E-07    8.2725274E+05
   -4.17   500.000    9.661E+00    8.6873250E+05    4.8567361E-08    4.8724737E-08    8.6873250E+05    1.2073555E-07    8.6914225E+05
   -4.16   500.000    9.611E+00    9.0892951E+05    5.5027812E-08    5.5201983E-08    9.0892951E+05    1.3661507E-07    9.0933696E+05
   -4.15   500.000    9.555E+00    9.4692981E+05    6.2028584E-08    6.2219141E-08    9.4692981E+05    1.5377516E-07    9.4733493E+05
   -4.14   500.000    9.492E+00    9.8219180E+05    6.9471347E-08    6.9677587E-08    9.8219180E+05    1.7197671E-07    9.8259491E+05
   -4.13   500.000    9.423E+00    1.0141672E+06    7.7213693E-08    7.7434654E-08    1.0141672E+06    1.9087569E-07    1.0145689E+06
   -4.12   500.000    9.346E+00    1.0423552E+06    8.5070181E-08    8.5304647E-08    1.0423552E+06    2.1002633E-07    1.0427565E+06
   -4.11   500.000    9.261E+00    1.0663765E+06    9.2816210E-08    9.3062712E-08    1.0663765E+06    2.2889207E-07    1.0667784E+06
   -4.10   500.000    9.170E+00    1.0860563E+06    1.0019496E-07    1.0045180E-07    1.0860563E+06    2.4686451E-07    1.0864601E+06
   -4.09   500.000    9.071E+00    1.1015064E+06    1.0692853E-07    1.0719387E-07    1.1015064E+06    2.6329221E-07    1.1019135E+06
   -4.08   500.000    8.965E+00    1.1131883E+06    1.1273485E-07    1.1300680E-07    1.1131883E+06    2.7752208E-07    1.1136001E+06
   -4.07   500.000    8.853E+00    1.1219429E+06    1.1735152E-07    1.1762833E-07    1.1219429E+06    2.8895498E-07    1.1223603E+06
   -4.06   500.000    8.736E+00    1.1289743E+06    1.2056574E-07    1.2084593E-07    1.1289743E+06    2.9711316E-07    1.1293977E+06
   -4.05   500.000    8.614E+00    1.1357829E+06    1.2224659E-07    1.2252904E-07    1.1357829E+06    3.0171150E-07    1.1362120E+06
   -4.04   500.000    8.489E+00    1.1440509E+06    1.2237302E-07    1.2265705E-07    1.1440509E+06    3.0271856E-07    1.1444844E+06
   -4.03   500.000    8.361E+00    1.1554915E+06    1.2105010E-07    1.2133544E-07    1.1554915E+06    3.0039103E-07    1.1559267E+06
   -4.02   500.000    8.231E+00    1.1716827E+06    1.1850709E-07    1.1879380E-07    1.1716827E+06    2.9526829E-07    1.1721158E+06
   -4.01   500.000    8.100E+00    1.1939096E+06    1.1507554E-07    1.1536386E-07    1.1939096E+06    2.8812256E-07    1.1943356E+06
   -4.00   500.000    7.969E+00    1.2230379E+06    1.1115041E-07    1.1144055E-07    1.2230379E+06    2.7987087E-07    1.2234509E+06
   -3.99   500.000    7.838E+00    1.2594363E+06    1.0714177E-07    1.0743369E-07    1.2594363E+06    2.7146523E-07    1.2598304E+06
   -3.98   500.000    7.708E+00    1.3029547E+06    1.0342632E-07    1.0371948E-07    1.3029547E+06    2.6378143E-07    1.3033240E+06
   -3.97   500.000    7.577E+00    1.3529534E+06    1.0030706E-07    1.0060022E-07    1.3529534E+06    2.5752551E-07    1.3532933E+06
   -3.96   500.000    7.446E+00    1.4083740E+06    9.7986875E-08    9.8277892E-08    1.4083740E+06    2.5317115E-07    1.4086812E+06
   -3.95   500.000    7.314E+00    1.4678339E+06    9.6557789E-08    9.6843584E-08    1.4678339E+06    2.5093303E-07    1.4681067E+06
   -3.94   500.000    7.182E+00    1.5297297E+06    9.6005293E-08    9.6281827E-08    1.5297297E+06    2.5077465E-07    1.5299678E+06
   -3.93   500.000    7.048E+00    1.5923383E+06    9.6224561E-08    9.6486950E-08    1.5923383E+06    2.5244396E-07    1.5925432E+06
   -3.92   500.000    6.914E+00    1.6539124E+06    9.7044613E-08    9.7287344E-08    1.6539124E+06    2.5552779E-07    1.6540862E+06
   -3.91   500.000    6.777E+00    1.7127686E+06    9.8255989E-08    9.8473214E-08    1.7127686E+06    2.5951517E-07    1.7129144E+06
   -3.90   500.000    6.640E+00    1.7673733E+06    9.9637704E-08    9.9823590E-08    1.7673733E+06    2.6386044E-07    1.7674944E+06
   -3.89   500.000    6.502E+00    1.8164251E+06    1.0098001E-07    1.0112910E-07    1.8164251E+06    2.6803812E-07    1.8165248E+06
   -3.88   500.000    6.363E+00    1.8589314E+06    1.0210073E-07    1.0220827E-07    1.8589314E+06    2.7158412E-07    1.8590129E+06
   -3.87   500.000    6.224E+00    1.8942693E+06    1.0285435E-07    1.0291659E-07    1.8942693E+06    2.7412046E-07    1.8943356E+06
   -3.86   500.000    6.086E+00    1.9222186E+06    1.0313446E-07    1.0314879E-07    1.9222186E+06    2.7536351E-07    1.9222722E+06
   -3.85   500.000    5.950E+00    1.9429581E+06    1.0287087E-07    1.0283591E-07    1.9429581E+06    2.7511883E-07    1.9430012E+06
   -3.84   500.000    5.815E+00    1.9570200E+06    1.0202369E-07    1.0193929E-07    1.9570200E+06    2.7326748E-07    1.9570547E+06
   -3.83   500.000    5.684E+00    1.9652101E+06    1.0057654E-07    1.0044365E-07    1.9652101E+06    2.6975019E-07    1.9652378E+06
   -3.82   500.000    5.555E+00    1.9685051E+06    9.8531215E-08    9.8351768E-08    1.9685051E+06    2.6455507E-07    1.9685273E+06
   -3.81   500.000    5.431E+00    1.9679497E+06    9.5904982E-08    9.5681705E-08    1.9679497E+06    2.5771227E-07    1.9679674E+06
   -3.80   500.000    5.312E+00    1.9645690E+06    9.2730719E-08    9.2466904E-08    1.9645690E+06    2.4929551E-07    1.9645831E+06
   -3.79   500.000    5.197E+00    1.9593146E+06    8.9058630E-08    8.8757874E-08    1.9593146E+06    2.3942734E-07    1.9593259E+06
   -3.78   500.000    5.088E+00    1.9530467E+06    8.4957887E-08    8.4623802E-08    1.9530467E+06    2.2828380E-07    1.9530557E+06
   -3.77   500.000    4.985E+00    1.9465480E+06    8.0516662E-08    8.0152575E-08    1.9465480E+06    2.1609457E-07    1.9465551E+06
   -3.76   500.000    4.888E+00    1.9405557E+06    7.5839741E-08    7.5448406E-08    1.9405557E+06    2.0313667E-07    1.9405614E+06
   -3.75   500.000    4.798E+00    1.9357920E+06    7.1043632E-08    7.0627013E-08    1.9357920E+06    1.8972147E-07    1.9357965E+06
   -3.74   500.000    4.714E+00    1.9329774E+06    6.6249568E-08    6.5808710E-08    1.9329774E+06    1.7617591E-07    1.9329810E+06
   -3.73   500.000    4.636E+00    1.9328182E+06    6.1575089E-08    6.1110117E-08    1.9328182E+06    1.6282001E-07    1.9328211E+06
   -3.72   500.000    4.565E+00    1.9359691E+06    5.7125194E-08    5.6635428E-08    1.9359691E+06    1.4994339E-07    1.9359713E+06
   -3.71   500.000    4.499E+00    1.9429817E+06    5.2984359E-08    5.2468548E-08    1.9429817E+06    1.3778458E-07    1.9429835E+06
   -3.70   500.000    4.439E+00    1.9542556E+06    4.9210893E-08    4.8667514E-08    1.9542556E+06    1.2651700E-07    1.9542570E+06
   -3.69   500.000    4.385E+00    1.9700050E+06    4.5834792E-08    4.5262385E-08    1.9700050E+06    1.1624444E-07    1.9700062E+06
   -3.68   500.000    4.335E+00    1.9902525E+06    4.2859489E-08    4.2256967E-08    1.9902525E+06    1.0700653E-07    1.9902534E+06
   -3.67   500.000    4.290E+00    2.0148494E+06    4.0266825E-08    3.9633709E-08    2.0148494E+06    9.8791658E-08    2.0148501E+06
   -3.66   500.000    4.248E+00    2.0435194E+06    3.8023725E-08    3.7360283E-08    2.0435194E+06    9.1552994E-08    2.0435200E+06
   -3.65   500.000    4.210E+00    2.0759128E+06    3.6088889E-08    3.5396151E-08    2.0759128E+06    8.5223047E-08    2.0759132E+06
   -3.64   500.000    4.175E+00    2.1116573E+06    3.4418288E-08    3.3697972E-08    2.1116573E+06    7.9724121E-08    2.1116576E+06
   -3.63   500.000    4.142E+00    2.1503946E+06    3.2969191E-08    3.2223550E-08    2.1503946E+06    7.4974592E-08    2.1503948E+06
   -3.62   500.000    4.112E+00    2.1917942E+06    3.1703106E-08    3.0934741E-08    2.1917942E+06    7.0892857E-08    2.1917944E+06
   -3.61   500.000    4.084E+00    2.2355479E+06    3.0588201E-08    2.9799870E-08    2.2355479E+06    6.7401080E-08    2.2355481E+06
   -3.60   500.000    4.057E+00    2.2813542E+06    2.9601374E-08    2.8795818E-08    2.2813542E+06    6.4429670E-08    2.2813544E+06
   -3.59   500.000    4.031E+00    2.3289065E+06    2.8729565E-08    2.7909375E-08    2.3289065E+06    6.1921715E-08    2.3289066E+06
   -3.58   500.000    4.007E+00    2.3778962E+06    2.7969670E-08    2.7137194E-08    2.3778962E+06    5.9835587E-08    2.3778962E+06
   -3.57   500.000    3.983E+00    2.4280316E+06    2.7326667E-08    2.6483958E-08    2.4280316E+06    5.8144257E-08    2.4280316E+06
   -3.56   500.000    3.960E+00    2.4790642E+06    2.6810193E-08    2.5958976E-08    2.4790642E+06    5.6831123E-08    2.4790643E+06
   -3.55   500.000    3.938E+00    2.5308033E+06    2.6430438E-08    2.5572078E-08    2.5308033E+06    5.5883717E-08    2.5308033E+06
   -3.54   500.000    3.916E+00    2.5831027E+06    2.6194466E-08    2.5329930E-08    2.5831027E+06    5.5287400E-08    2.5831027E+06
   -3.53   500.000    3.895E+00    2.6358202E+06    2.6103887E-08    2.5233714E-08    2.6358202E+06    5.5021036E-08    2.6358202E+06
   -3.52   500.000    3.873E+00    2.6887618E+06    2.6154272E-08    2.5278564E-08    2.6887618E+06    5.5055724E-08    2.6887618E+06
   -3.51   500.000    3.852E+00    2.7416391E+06    2.6336112E-08    2.5454564E-08    2.7416391E+06    5.5356434E-08    2.7416391E+06
   -3.50   500.000    3.830E+00    2.7940604E+06    2.6636672E-08    2.5748644E-08    2.7940604E+06    5.5885384E-08    2.7940604E+06
   -3.49   500.000    3.808E+00    2.8455652E+06    2.7041898E-08    2.6146524E-08    2.8455652E+06    5.6605416E-08    2.8455652E+06
   -3.48   500.000    3.786E+00    2.8956918E+06    2.7537646E-08    2.6633945E-08    2.8956918E+06    5.7481673E-08    2.8956918E+06
   -3.47   500.000    3.764E+00    2.9440590E+06    2.8109821E-08    2.7196806E-08    2.9440590E+06    5.8480702E-08    2.9440590E+06
   -3.46   500.000    3.741E+00    2.9904330E+06    2.8743469E-08    2.7820228E-08    2.9904330E+06    5.9567276E-08    2.9904330E+06
   -3.45   500.000    3.718E+00    3.0347551E+06    2.9421278E-08    2.8487022E-08    3.0347551E+06    6.0700455E-08    3.0347551E+06
   -3.44   500.000    3.695E+00    3.0771193E+06    3.0122196E-08    2.9176273E-08    3.0771193E+06    6.1831035E-08    3.0771193E+06
   -3.43   500.000    3.671E+00    3.1177106E+06    3.0820921E-08    2.9862799E-08    3.1177106E+06    6.2902312E-08    3.1177106E+06
   -3.42   500.000    3.647E+00    3.1567284E+06    3.1488785E-08    3.0518011E-08    3.1567284E+06    6.3854951E-08    3.1567284E+06
   -3.41   500.000    3.622E+00    3.1943292E+06    3.2096112E-08    3.1112239E-08    3.1943292E+06    6.4635077E-08    3.1943292E+06
   -3.40   500.000    3.597E+00    3.2306075E+06    3.2615531E-08    3.1618033E-08    3.2306075E+06    6.5203146E-08    3.2306075E+06
   -3.39   500.000    3.571E+00    3.2656190E+06    3.3025304E-08    3.2013468E-08    3.2656190E+06    6.5540468E-08    3.2656190E+06
   -3.38   500.000    3.545E+00    3.2994299E+06    3.3311636E-08    3.2284468E-08    3.2994299E+06    6.5650860E-08    3.2994299E+06
   -3.37   500.000    3.518E+00    3.3321686E+06    3.3469317E-08    3.2425456E-08    3.3321686E+06    6.5556631E-08    3.3321686E+06
   -3.36   500.000    3.490E+00    3.3640533E+06    3.3500622E-08    3.2438293E-08    3.3640533E+06    6.5290157E-08    3.3640533E+06
   -3.35   500.000    3.462E+00    3.3953777E+06    3.3412964E-08    3.2330009E-08    3.3953777E+06    6.4883806E-08    3.3953777E+06
   -3.34   500.000    3.434E+00    3.4264548E+06    3.3216126E-08    3.2110094E-08    3.4264548E+06    6.4361329E-08    3.4264549E+06
   -3.33   500.000    3.405E+00    3.4575338E+06    3.2919870E-08    3.1788212E-08    3.4575338E+06    6.3733154E-08    3.4575338E+06
   -3.32   500.000    3.375E+00    3.4887192E+06    3.2532640E-08    3.1372967E-08    3.4887192E+06    6.2996703E-08    3.4887192E+06
   -3.31   500.000    3.345E+00    3.5199230E+06    3.2061677E-08    3.0872077E-08    3.5199230E+06    6.2141340E-08    3.5199230E+06
   -3.30   500.000    3.315E+00    3.5508685E+06    3.1514444E-08    3.0293803E-08    3.5508685E+06    6.1156160E-08    3.5508686E+06
   -3.29   500.000    3.284E+00    3.5811462E+06    3.0900738E-08    2.9649008E-08    3.5811462E+06    6.0038002E-08    3.5811462E+06
   -3.28   500.000    3.254E+00    3.6103036E+06    3.0234516E-08    2.8952890E-08    3.6103036E+06    5.8796958E-08    3.6103036E+06
   -3.27   500.000    3.223E+00    3.6379431E+06    2.9534579E-08    2.8225527E-08    3.6379431E+06    5.7457636E-08    3.6379431E+06
   -3.26   500.000    3.191E+00    3.6637986E+06    2.8823677E-08    2.7490829E-08    3.6637986E+06    5.6055981E-08    3.6637986E+06
   -3.25   500.000    3.160E+00    3.6877683E+06    2.8126242E-08    2.6774140E-08    3.6877683E+06    5.4633060E-08    3.6877683E+06
   -3.24   500.000    3.129E+00    3.7098920E+06    2.7465424E-08    2.6099178E-08    3.7098920E+06    5.3228108E-08    3.7098921E+06
   -3.23   500.000    3.098E+00    3.7302773E+06    2.6860274E-08    2.5485185E-08    3.7302773E+06    5.1873020E-08    3.7302774E+06
   -3.22   500.000    3.067E+00    3.7489997E+06    2.6323778E-08    2.4944985E-08    3.7489997E+06    5.0589675E-08    3.7489998E+06
   -3.21   500.000    3.036E+00    3.7660140E+06    2.5862081E-08    2.4484281E-08    3.7660140E+06    4.9390237E-08    3.7660141E+06
   -3.20   500.000    3.005E+00    3.7811127E+06    2.5474886E-08    2.4102137E-08    3.7811127E+06    4.8279677E-08    3.7811129E+06
   -3.19   500.000    2.974E+00    3.7939479E+06    2.5156673E-08    2.3792295E-08    3.7939479E+06    4.7259190E-08    3.7939481E+06
   -3.18   500.000    2.943E+00    3.8041100E+06    2.4898337E-08    2.3544871E-08    3.8041100E+06    4.6329294E-08    3.8041102E+06
   -3.17   500.000    2.912E+00    3.8112391E+06    2.4688881E-08    2.3348097E-08    3.8112391E+06    4.5491853E-08    3.8112394E+06
   -3.16   500.000    2.882E+00    3.8151352E+06    2.4516993E-08    2.3189922E-08    3.8151352E+06    4.4750881E-08    3.8151355E+06
   -3.15   500.000    2.851E+00    3.8158380E+06    2.4372437E-08    2.3059421E-08    3.8158380E+06    4.4112464E-08    3.8158384E+06
   -3.14   500.000    2.820E+00    3.8136568E+06    2.4247210E-08    2.2947958E-08    3.8136568E+06    4.3584283E-08    3.8136573E+06
   -3.13   500.000    2.790E+00    3.8091443E+06    2.4136336E-08    2.2849999E-08    3.8091443E+06    4.3175140E-08    3.8091450E+06
   -3.12   500.000    2.758E+00    3.8030260E+06    2.4038173E-08    2.2763428E-08    3.8030260E+06    4.2894583E-08    3.8030269E+06
   -3.11   500.000    2.727E+00    3.7961059E+06    2.3954121E-08    2.2689275E-08    3.7961059E+06    4.2752507E-08    3.7961070E+06
   -3.10   500.000    2.695E+00    3.7891743E+06    2.3887724E-08    2.2630819E-08    3.7891743E+06    4.2758423E-08    3.7891757E+06
   -3.09   500.000    2.663E+00    3.7829421E+06    2.3843251E-08    2.2592178E-08    3.7829421E+06    4.2920210E-08    3.7829440E+06
   -3.08   500.000    2.629E+00    3.7780129E+06    2.3824003E-08    2.2576620E-08    3.7780129E+06    4.3242469E-08    3.7780152E+06
   -3.07   500.000    2.595E+00    3.7748913E+06    2.3830800E-08    2.2585032E-08    3.7748913E+06    4.3725002E-08    3.7748942E+06
   -3.06   500.000    2.559E+00    3.7740127E+06    2.3861176E-08    2.2615103E-08    3.7740127E+06    4.4362212E-08    3.7740164E+06
   -3.05   500.000    2.522E+00    3.7757691E+06    2.3909744E-08    2.2661645E-08    3.7757691E+06    4.5144048E-08    3.7757737E+06
   -3.04   500.000    2.483E+00    3.7805069E+06    2.3969766E-08    2.2718126E-08    3.7805069E+06    4.6058497E-08    3.7805128E+06
   -3.03   500.000    2.442E+00    3.7884844E+06    2.4035465E-08    2.2778957E-08    3.7884844E+06    4.7094875E-08    3.7884917E+06
   -3.02   500.000    2.398E+00    3.7997900E+06    2.4104268E-08    2.2841709E-08    3.7997900E+06    4.8246662E-08    3.7997993E+06
   -3.01   500.000    2.353E+00    3.8142458E+06    2.4178069E-08    2.2908418E-08    3.8142458E+06    4.9512657E-08    3.8142575E+06
   -3.00   500.000    2.305E+00    3.8313261E+06    2.4263006E-08    2.2985381E-08    3.8313261E+06    5.0895779E-08    3.8313408E+06
   -2.99   500.000    2.254E+00    3.8501274E+06    2.4367687E-08    2.3081436E-08    3.8501274E+06    5.2399639E-08    3.8501460E+06
   -2.98   500.000    2.200E+00    3.8694083E+06    2.4500404E-08    2.3205179E-08    3.8694083E+06    5.4023724E-08    3.8694316E+06
   -2.97   500.000    2.143E+00    3.8876973E+06    2.4666134E-08    2.3361944E-08    3.8876973E+06    5.5758394E-08    3.8877266E+06
   -2.96   500.000    2.083E+00    3.9034452E+06    2.4864180E-08    2.3551394E-08    3.9034452E+06    5.7580879E-08    3.9034820E+06
   -2.95   500.000    2.020E+00    3.9151865E+06    2.5087023E-08    2.3766302E-08    3.9151865E+06    5.9453141E-08    3.9152326E+06
   -2.94   500.000    1.955E+00    3.9216744E+06    2.5320575E-08    2.3992748E-08    3.9216744E+06    6.1321968E-08    3.9217322E+06
   -2.93   500.000    1.886E+00    3.9219677E+06    2.5545574E-08    2.4211490E-08    3.9219677E+06    6.3121190E-08    3.9220400E+06
   -2.92   500.000    1.814E+00    3.9154566E+06    2.5739624E-08    2.4400014E-08    3.9154566E+06    6.4775529E-08    3.9155469E+06
   -2.91   500.000    1.740E+00    3.9018334E+06    2.5879321E-08    2.4534731E-08    3.9018334E+06    6.6205542E-08    3.9019457E+06
   -2.90   500.000    1.664E+00    3.8810232E+06    2.5942106E-08    2.4592899E-08    3.8810232E+06    6.7333118E-08    3.8811626E+06
   -2.89   500.000    1.586E+00    3.8531013E+06    2.5907725E-08    2.4554170E-08    3.8531013E+06    6.8087152E-08    3.8532735E+06
   -2.88   500.000    1.507E+00    3.8182211E+06    2.5759362E-08    2.4401761E-08    3.8182211E+06    6.8408931E-08    3.8184330E+06
   -2.87   500.000    1.427E+00    3.7765737E+06    2.5484551E-08    2.4123372E-08    3.7765737E+06    6.8256646E-08    3.7768330E+06
   -2.86   500.000    1.348E+00    3.7283848E+06    2.5075874E-08    2.3711837E-08    3.7283848E+06    6.7608360E-08    3.7287001E+06
   -2.85   500.000    1.270E+00    3.6739417E+06    2.4531392E-08    2.3165502E-08    3.6739417E+06    6.6462980E-08    3.6743222E+06
   -2.84   500.000    1.193E+00    3.6136356E+06    2.3854777E-08    2.2488281E-08    3.6136356E+06    6.4839288E-08    3.6140908E+06
   -2.83   500.000    1.119E+00    3.5479968E+06    2.3055129E-08    2.1689442E-08    3.5479968E+06    6.2773599E-08    3.5485366E+06
   -2.82   500.000    1.047E+00    3.4777051E+06    2.2146523E-08    2.0783131E-08    3.4777051E+06    6.0316772E-08    3.4783386E+06
   -2.81   500.000    9.790E-01    3.4035620E+06    2.1147276E-08    1.9787659E-08    3.4035620E+06    5.7531138E-08    3.4042975E+06
   -2.80   500.000    9.146E-01    3.3264274E+06    2.0078900E-08    1.8724492E-08    3.3264274E+06    5.4487419E-08    3.3272717E+06
   -2.79   500.000    8.539E-01    3.2471365E+06    1.8964726E-08    1.7616923E-08    3.2471365E+06    5.1261467E-08    3.2480947E+06
   -2.78   500.000    7.972E-01    3.1664218E+06    1.7828311E-08    1.6488515E-08    3.1664218E+06    4.7930627E-08    3.1674969E+06
   -2.77   500.000    7.444E-01    3.0848631E+06    1.6691829E-08    1.5361506E-08    3.0848631E+06    4.4569819E-08    3.0860563E+06
   -2.76   500.000    6.954E-01    3.0028779E+06    1.5574736E-08    1.4255452E-08    3.0028779E+06    4.1247755E-08    3.0041884E+06
   -2.75   500.000    6.499E-01    2.9207469E+06    1.4492909E-08    1.3186332E-08    2.9207469E+06    3.8023856E-08    2.9221721E+06
   -2.74   500.000    6.079E-01    2.8386592E+06    1.3458356E-08    1.2166216E-08    2.8386592E+06    3.4946264E-08    2.8401953E+06
   -2.73   500.000    5.690E-01    2.7567588E+06    1.2479422E-08    1.1203446E-08    2.7567588E+06    3.2051099E-08    2.7584011E+06
   -2.72   500.000    5.330E-01    2.6751780E+06    1.1561321E-08    1.0303157E-08    2.6751780E+06    2.9362776E-08    2.6769212E+06
   -2.71   500.000    4.996E-01    2.5940497E+06    1.0706777E-08    9.4679439E-09    2.5940497E+06    2.6895019E-08    2.5958882E+06
   -2.70   500.000    4.687E-01    2.5135014E+06    9.9166007E-09    8.6984657E-09    2.5135014E+06    2.4652223E-08    2.5154298E+06
   -2.69   500.000    4.399E-01    2.4336362E+06    9.1900717E-09    7.9938648E-09    2.4336362E+06    2.2630862E-08    2.4356494E+06
   -2.68   500.000    4.131E-01    2.3545127E+06    8.5250911E-09    7.3519451E-09    2.3545127E+06    2.0820833E-08    2.3566055E+06
   -2.67   500.000    3.882E-01    2.2761322E+06    7.9181813E-09    6.7691789E-09    2.2761322E+06    1.9206738E-08    2.2782999E+06
   -2.66   500.000    3.648E-01    2.1984452E+06    7.3644845E-09    6.2406999E-09    2.1984452E+06    1.7769242E-08    2.2006828E+06
   -2.65   500.000    3.429E-01    2.1213749E+06    6.8579328E-09    5.7604575E-09    2.1213749E+06    1.6486592E-08    2.1236776E+06
   -2.64   500.000    3.224E-01    2.0448549E+06    6.3916809E-09    5.3216335E-09    2.0448549E+06    1.5336277E-08    2.0472177E+06
   -2.63   500.000    3.031E-01    1.9688631E+06    5.9587560E-09    4.9172786E-09    1.9688631E+06    1.4296643E-08    1.9712811E+06
   -2.62   500.000    2.849E-01    1.8934384E+06    5.5527615E-09    4.5410125E-09    1.8934384E+06    1.3348192E-08    1.8959065E+06
   -2.61   500.000    2.676E-01    1.8186704E+06    5.1684542E-09    4.1876067E-09    1.8186704E+06    1.2474335E-08    1.8211839E+06
   -2.60   500.000    2.514E-01    1.7446674E+06    4.8020825E-09    3.8533333E-09    1.7446674E+06    1.1661605E-08    1.7472213E+06
   -2.59   500.000    2.359E-01    1.6715177E+06    4.4514713E-09    3.5360552E-09    1.6715177E+06    1.0899451E-08    1.6741071E+06
   -2.58   500.000    2.213E-01    1.5992634E+06    4.1158879E-09    3.2350854E-09    1.5992634E+06    1.0179854E-08    1.6018837E+06
   -2.57   500.000    2.074E-01    1.5278967E+06    3.7957369E-09    2.9508584E-09    1.5278967E+06    9.4969071E-09    1.5305431E+06
   -2.56   500.000    1.941E-01    1.4573770E+06    3.4921276E-09    2.6844622E-09    1.4573770E+06    8.8464441E-09    1.4600448E+06
   -2.55   500.000    1.815E-01    1.3876576E+06    3.2063834E-09    2.4371145E-09    1.3876576E+06    8.2256951E-09    1.3903426E+06
   -2.54   500.000    1.695E-01    1.3187107E+06    2.9395960E-09    2.2096981E-09    1.3187107E+06    7.6329837E-09    1.3214091E+06
   -2.53   500.000    1.581E-01    1.2505412E+06    2.6923245E-09    2.0024626E-09    1.2505412E+06    7.0674723E-09    1.2532499E+06
   -2.52   500.000    1.472E-01    1.1831877E+06    2.4644875E-09    1.8149439E-09    1.1831877E+06    6.5289691E-09    1.1859043E+06
   -2.51   500.000    1.368E-01    1.1167149E+06    2.2554251E-09    1.6460663E-09    1.1167149E+06    6.0177859E-09    1.1194373E+06
   -2.50   500.000    1.268E-01    1.0512007E+06    2.0640485E-09    1.4943375E-09    1.0512007E+06    5.5346070E-09    1.0539272E+06
   -2.49   500.000    1.173E-01    9.8672595E+05    1.8889942E-09    1.3580388E-09    9.8672595E+05    5.0803253E-09    9.8945394E+05
   -2.48   500.000    1.082E-01    9.2336684E+05    1.7287287E-09    1.2353532E-09    9.2336684E+05    4.6558222E-09    9.2609265E+05
   -2.47   500.000    9.959E-02    8.6119495E+05    1.5816039E-09    1.1244306E-09    8.6119495E+05    4.2617053E-09    8.6391297E+05
   -2.46   500.000    9.135E-02    8.0028172E+05    1.4458965E-09    1.0234259E-09    8.0028172E+05    3.8980520E-09    8.0298410E+05
   -2.45   500.000    8.350E-02    7.4070658E+05    1.3198686E-09    9.3055127E-10    7.4070658E+05    3.5642156E-09    7.4338314E+05
   -2.44   500.000    7.603E-02    6.8256534E+05    1.2018695E-09    8.4416490E-10    6.8256534E+05    3.2587382E-09    6.8520389E+05
   -2.43   500.000    6.894E-02    6.2597648E+05    1.0904646E-09    7.6288289E-10    6.2597648E+05    2.9793935E-09    6.2856326E+05
   -2.42   500.000    6.222E-02    5.7108362E+05    9.8456022E-10    6.8568415E-10    5.7108362E+05    2.7233525E-09    5.7360392E+05
   -2.41   500.000    5.587E-02    5.1805426E+05    8.8348616E-10    6.1197347E-10    5.1805426E+05    2.4874482E-09    5.2049303E+05
   -2.40   500.000    4.990E-02    4.6707575E+05    7.8701455E-10    5.4158223E-10    4.6707575E+05    2.2684891E-09    4.6941808E+05
   -2.39   500.000    4.430E-02    4.1834942E+05    6.9530864E-10    4.7470498E-10    4.1834942E+05    2.0635634E-09    4.2058104E+05
   -2.38   500.000    3.908E-02    3.7208333E+05    6.0881480E-10    4.1178584E-10    3.7208333E+05    1.8702780E-09    3.7419102E+05
   -2.37   500.000    3.424E-02    3.2848329E+05    5.2812168E-10    3.5337930E-10    3.2848329E+05    1.6868977E-09    3.3045533E+05
   -2.36   500.000    2.979E-02    2.8774218E+05    4.5381564E-10    3.0001293E-10    2.8774218E+05    1.5123830E-09    2.8956882E+05
   -2.35   500.000    2.572E-02    2.5002775E+05    3.8635945E-10    2.5207699E-10    2.5002775E+05    1.3463452E-09    2.5170170E+05
   -2.34   500.000    2.203E-02    2.1547022E+05    3.2601270E-10    2.0975727E-10    2.1547022E+05    1.1889463E-09    2.1698707E+05
   -2.33   500.000    1.873E-02    1.8415056E+05    2.7279991E-10    1.7301544E-10    1.8415056E+05    1.0407589E-09    1.8550911E+05
   -2.32   500.000    1.580E-02    1.5609121E+05    2.2652024E-10    1.4160961E-10    1.5609121E+05    9.0259738E-10    1.5729357E+05
   -2.31   500.000    1.323E-02    1.3125040E+05    1.8678528E-10    1.1514051E-10    1.3125040E+05    7.7533252E-10    1.3230189E+05
   -2.30   500.000    1.100E-02    1.0952152E+05    1.5307057E-10    9.3107766E-11    1.0952152E+05    6.5971024E-10    1.1043038E+05
   -2.29   500.000    9.087E-03    9.0738276E+04    1.2476890E-10    7.4963755E-11    9.0738276E+04    5.5620402E-10    9.1515072E+04
   -2.28   500.000    7.459E-03    7.4684879E+04    1.0123822E-10    6.0157925E-11    7.4684879E+04    4.6492525E-10    7.5341840E+04
   -2.27   500.000    6.089E-03    6.1110136E+04    8.1840533E-11    4.8168721E-11    6.1110136E+04    3.8560192E-10    6.1660394E+04
   -2.26   500.000    4.947E-03    4.9743025E+04    6.5970488E-11    3.8523511E-11    4.9743025E+04    3.1761806E-10    5.0199913E+04
   -2.25   500.000    4.002E-03    4.0307689E+04    5.3074197E-11    3.0808443E-11    4.0307689E+04    2.6009406E-10    4.0684145E+04
   -2.24   500.000    3.226E-03    3.2536126E+04    4.2659555E-11    2.4670848E-11    3.2536126E+04    2.1198399E-10    3.2844246E+04
   -2.23   500.000    2.592E-03    2.6177657E+04    3.4299886E-11    1.9816733E-11    2.6177657E+04    1.7216985E-10    2.6428412E+04
   -2.22   500.000    2.078E-03    2.1005005E+04    2.7632830E-11    1.6005525E-11    2.1005005E+04    1.3953991E-10    2.1208096E+04
   -2.21   500.000    1.662E-03    1.6817310E+04    2.2356227E-11    1.3043649E-11    1.6817310E+04    1.1304602E-10    1.6981138E+04
   -2.20   500.000    1.327E-03    1.3440754E+04    1.8222426E-11    1.0778035E-11    1.3440754E+04    9.1740046E-11    1.3572472E+04
   -2.19   500.000    1.058E-03    1.0727480E+04    1.5032064E-11    9.0901692E-12    1.0727480E+04    7.4793055E-11    1.0833094E+04
   -2.18   500.000    8.420E-04    8.5534700E+03    1.2628055E-11    7.8910315E-12    8.5534700E+03    6.1501710E-11    8.6379656E+03
   -2.17   500.000    6.695E-04    6.8158862E+03    1.0890214E-11    7.1170458E-12    6.8158862E+03    5.1286425E-11    6.8833653E+03
   -2.16   500.000    5.317E-04    5.4302547E+03    9.7307842E-12    6.7270734E-12    5.4302547E+03    4.3684964E-11    5.4840661E+03
   -2.15   500.000    4.217E-04    4.3277256E+03    9.0909971E-12    6.7004286E-12    4.3277256E+03    3.8344320E-11    4.3705879E+03
   -2.14   500.000    3.339E-04    3.4525573E+03    8.9387269E-12    7.0358933E-12    3.4525573E+03    3.5012854E-11    3.4866663E+03
   -2.13   500.000    2.637E-04    2.7598888E+03    9.2672824E-12    7.7517221E-12    2.7598888E+03    3.3534081E-11    2.7870119E+03
   -2.12   500.000    2.076E-04    2.2138245E+03    1.0095376E-11    8.8866646E-12    2.2138245E+03    3.3843015E-11    2.2353797E+03
   -2.11   500.000    1.626E-04    1.7858212E+03    1.1468337E-11    1.0502072E-11    1.7858212E+03    3.5965736E-11    1.8029432E+03
   -2.10   500.000    1.262E-04    1.4533543E+03    1.3460676E-11    1.2685207E-11    1.4533543E+03    4.0022756E-11    1.4669498E+03
   -2.09   500.000    9.666E-05    1.1988340E+03    1.6180168E-11    1.5553935E-11    1.1988340E+03    4.6236727E-11    1.2096260E+03
   -2.08   500.000    7.228E-05    1.0087384E+03    1.9773672E-11    1.9263046E-11    1.0087384E+03    5.4945150E-11    1.0173031E+03
   -2.07   500.000    5.179E-05    8.7293603E+02    2.4435018E-11    2.4012536E-11    8.7293603E+02    6.6618902E-11    8.7973170E+02
   -2.06   500.000    3.409E-05    7.8417029E+02    3.0415362E-11    3.0058277E-11    7.8417029E+02    8.1887638E-11    7.8956154E+02
   -2.05   500.000    1.822E-05    7.3768705E+02    3.8036544E-11    3.7725616E-11    7.3768705E+02    1.0157343E-10    7.4196361E+02
   -2.04   500.000    3.338E-06    7.3098778E+02    4.7708119E-11    4.7426598E-11    7.3098778E+02    1.2673435E-10    7.3437979E+02
   -2.03   500.000   -1.136E-05    7.6369805E+02    5.9948910E-11    5.9681641E-11    7.6369805E+02    1.5872018E-10    7.6638826E+02
   -2.02   500.000   -2.666E-05    8.3754465E+02    7.5414107E-11    7.5146725E-11    8.3754465E+02    1.9924293E-10    8.3967814E+02
   -2.01   500.000   -4.339E-05    9.5643980E+02    9.4929173E-11    9.4647350E-11    9.5643980E+02    2.5046544E-10    9.5813170E+02
   -2.00   500.000   -6.244E-05    1.1266748E+03    1.1953207E-10    1.1922077E-10    1.1266748E+03    3.1511197E-10    1.1280165E+03
   -1.99   500.000   -8.482E-05    1.3572302E+03    1.5052557E-10    1.5016827E-10    1.3572302E+03    3.9660551E-10    1.3582941E+03
   -1.98   500.000   -1.117E-04    1.6602122E+03    1.8954170E-10    1.8911958E-10    1.6602122E+03    4.9923699E-10    1.6610558E+03
   -1.97   500.000   -1.445E-04    2.0514303E+03    2.3862051E-10    2.3811151E-10    2.0514303E+03    6.2837247E-10    2.0520992E+03
   -1.96   500.000   -1.850E-04    2.5511295E+03    3.0030562E-10    2.9968343E-10    2.5511295E+03    7.9070425E-10    2.5516599E+03
   -1.95   500.000   -2.352E-04    3.1848949E+03    3.7775866E-10    3.7699150E-10    3.1848949E+03    9.9455199E-10    3.1853155E+03
   -1.94   500.000   -2.976E-04    3.9847395E+03    4.7489446E-10    4.7394372E-10    3.9847395E+03    1.2502184E-09    3.9850730E+03
   -1.93   500.000   -3.754E-04    4.9903791E+03    5.9653765E-10    5.9535626E-10    4.9903791E+03    1.5704010E-09    4.9906435E+03
   -1.92   500.000   -4.724E-04    6.2506835E+03    7.4859931E-10    7.4712992E-10    6.2506835E+03    1.9706575E-09    6.2508931E+03
   -1.91   500.000   -5.931E-04    7.8252659E+03    9.3826929E-10    9.3644207E-10    7.8252659E+03    2.4699114E-09    7.8254321E+03
   -1.90   500.000   -7.432E-04    9.7861332E+03    1.1742145E-09    1.1719446E-09    9.7861332E+03    3.0909739E-09    9.7862650E+03
   -1.89   500.000   -9.292E-04    1.2219268E+04    1.4667670E-09    1.4639514E-09    1.2219268E+04    3.8610387E-09    1.2219372E+04
   -1.88   500.000   -1.159E-03    1.5225941E+04    1.8280756E-09    1.8245890E-09    1.5225941E+04    4.8120815E-09    1.5226024E+04
   -1.87   500.000   -1.442E-03    1.8923491E+04    2.2721846E-09    2.2678741E-09    1.8923491E+04    5.9810643E-09    1.8923557E+04
   -1.86   500.000   -1.787E-03    2.3445229E+04    2.8149893E-09    2.8096665E-09    2.3445229E+04    7.4098152E-09    2.3445281E+04
   -1.85   500.000   -2.208E-03    2.8939118E+04    3.4740071E-09    3.4674376E-09    2.8939118E+04    9.1444130E-09    2.8939160E+04
   -1.84   500.000   -2.715E-03    3.5564923E+04    4.2678945E-09    4.2597821E-09    3.5564923E+04    1.1233885E-08    3.5564956E+04
   -1.83   500.000   -3.322E-03    4.3489678E+04    5.2156385E-09    5.2056060E-09    4.3489678E+04    1.3728008E-08    4.3489704E+04
   -1.82   500.000   -4.043E-03    5.2881598E+04    6.3353686E-09    6.3229350E-09    5.2881598E+04    1.6674044E-08    5.2881618E+04
   -1.81   500.000   -4.890E-03    6.3902909E+04    7.6427701E-09    7.6273293E-09    6.3902909E+04    2.0112291E-08    6.3902925E+04
   -1.80   500.000   -5.875E-03    7.6702388E+04    9.1491559E-09    9.1299630E-09    7.6702388E+04    2.4070562E-08    7.6702401E+04
   -1.79   500.000   -7.008E-03    9.1408612E+04    1.0859361E-08    1.0835535E-08    9.1408612E+04    2.8557954E-08    9.1408623E+04
   -1.78   500.000   -8.298E-03    1.0812483E+05    1.2769773E-08    1.2740316E-08    1.0812483E+05    3.3558761E-08    1.0812484E+05
   -1.77   500.000   -9.752E-03    1.2692605E+05    1.4866946E-08    1.4830781E-08    1.2692605E+05    3.9027870E-08    1.2692606E+05
   -1.76   500.000   -1.137E-02    1.4785840E+05    1.7127379E-08    1.7083373E-08    1.4785840E+05    4.4889473E-08    1.4785841E+05
   -1.75   500.000   -1.316E-02    1.7094044E+05    1.9518969E-08    1.9465940E-08    1.7094044E+05    5.1041049E-08    1.7094045E+05
   -1.74   500.000   -1.512E-02    1.9616566E+05    2.2004516E-08    2.1941182E-08    1.9616566E+05    5.7364018E-08    1.9616566E+05
   -1.73   500.000   -1.724E-02    2.2350558E+05    2.4547103E-08    2.4472002E-08    2.2350558E+05    6.3740962E-08    2.2350558E+05
   -1.72   500.000   -1.953E-02    2.5291319E+05    2.7116530E-08    2.7027921E-08    2.5291319E+05    7.0076758E-08    2.5291320E+05
   -1.71   500.000   -2.197E-02    2.8432659E+05    2.9695175E-08    2.9590957E-08    2.8432659E+05    7.6318243E-08    2.8432659E+05
   -1.70   500.000   -2.457E-02    3.1767311E+05    3.2281163E-08    3.2158852E-08    3.1767311E+05    8.2465389E-08    3.1767311E+05
   -1.69   500.000   -2.732E-02    3.5287395E+05    3.4887040E-08    3.4743805E-08    3.5287395E+05    8.8567950E-08    3.5287395E+05
   -1.68   500.000   -3.022E-02    3.8984871E+05    3.7533292E-08    3.7366037E-08    3.8984871E+05    9.4705616E-08    3.8984871E+05
   -1.67   500.000   -3.326E-02    4.2851906E+05    4.0237927E-08    4.0043399E-08    4.2851906E+05    1.0095568E-07    4.2851906E+05
   -1.66   500.000   -3.643E-02    4.6881066E+05    4.3005140E-08    4.2780062E-08    4.6881066E+05    1.0735766E-07    4.6881066E+05
   -1.65   500.000   -3.974E-02    5.1065311E+05    4.5817009E-08    4.5558224E-08    5.1065311E+05    1.1388675E-07    5.1065311E+05
   -1.64   500.000   -4.317E-02    5.5397841E+05    4.8631635E-08    4.8336285E-08    5.5397841E+05    1.2044601E-07    5.5397841E+05
   -1.63   500.000   -4.673E-02    5.9871897E+05    5.1389163E-08    5.1054902E-08    5.9871897E+05    1.2688127E-07    5.9871897E+05
   -1.62   500.000   -5.040E-02    6.4480630E+05    5.4024357E-08    5.3649608E-08    6.4480630E+05    1.3301503E-07    6.4480630E+05
   -1.61   500.000   -5.420E-02    6.9217130E+05    5.6481971E-08    5.6066213E-08    6.9217130E+05    1.3868916E-07    6.9217130E+05
   -1.60   500.000   -5.811E-02    7.4074653E+05    5.8730144E-08    5.8274204E-08    7.4074653E+05    1.4380317E-07    7.4074653E+05
   -1.59   500.000   -6.213E-02    7.9047013E+05    6.0767901E-08    6.0274200E-08    7.9047013E+05    1.4833759E-07    7.9047013E+05
   -1.58   500.000   -6.626E-02    8.4129039E+05    6.2625137E-08    6.2097819E-08    8.4129039E+05    1.5235743E-07    8.4129039E+05
   -1.57   500.000   -7.049E-02    8.9316994E+05    6.4356125E-08    6.3800999E-08    8.9316994E+05    1.5599846E-07    8.9316994E+05
   -1.56   500.000   -7.484E-02    9.4608833E+05    6.6029489E-08    6.5453731E-08    9.4608833E+05    1.5944356E-07    9.4608833E+05
   -1.55   500.000   -7.928E-02    1.0000417E+06    6.7718028E-08    6.7129638E-08    1.0000417E+06    1.6289817E-07    1.0000417E+06
   -1.54   500.000   -8.383E-02    1.0550384E+06    6.9490841E-08    6.8897930E-08    1.0550384E+06    1.6657096E-07    1.0550384E+06
   -1.53   500.000   -8.847E-02    1.1110911E+06    7.1408609E-08    7.0818655E-08    1.1110911E+06    1.7066161E-07    1.1110911E+06
   -1.52   500.000   -9.322E-02    1.1682054E+06    7.3521508E-08    7.2940762E-08    1.1682054E+06    1.7535339E-07    1.1682054E+06
   -1.51   500.000   -9.806E-02    1.2263692E+06    7.5868547E-08    7.5301763E-08    1.2263692E+06    1.8080667E-07    1.2263692E+06
   -1.50   500.000   -1.030E-01    1.2855455E+06    7.8477165E-08    7.7927723E-08    1.2855455E+06    1.8714988E-07    1.2855455E+06
   -1.49   500.000   -1.080E-01    1.3456721E+06    8.1362155E-08    8.0832541E-08    1.3456721E+06    1.9446640E-07    1.3456721E+06
   -1.48   500.000   -1.132E-01    1.4066697E+06    8.4523349E-08    8.4015829E-08    1.4066697E+06    2.0277810E-07    1.4066697E+06
   -1.47   500.000   -1.184E-01    1.4684586E+06    8.7941937E-08    8.7459196E-08    1.4684586E+06    2.1202827E-07    1.4684586E+06
   -1.46   500.000   -1.237E-01    1.5309786E+06    9.1576089E-08    9.1121652E-08    1.5309786E+06    2.2206841E-07    1.5309786E+06
   -1.45   500.000   -1.291E-01    1.5942057E+06    9.5357688E-08    9.4936019E-08    1.5942057E+06    2.3265499E-07    1.5942057E+06
   -1.44   500.000   -1.346E-01    1.6581563E+06    9.9192763E-08    9.8809074E-08    1.6581563E+06    2.4346162E-07    1.6581563E+06
   -1.43   500.000   -1.401E-01    1.7228760E+06    1.0296788E-07    1.0262778E-07    1.7228760E+06    2.5410979E-07    1.7228760E+06
   -1.42   500.000   -1.458E-01    1.7884166E+06    1.0656282E-07    1.0627192E-07    1.7884166E+06    2.6421495E-07    1.7884166E+06
   -1.41   500.000   -1.516E-01    1.8548101E+06    1.0986704E-07    1.0963068E-07    1.8548101E+06    2.7343883E-07    1.8548101E+06
   -1.40   500.000   -1.574E-01    1.9220510E+06    1.1279557E-07    1.1261868E-07    1.9220510E+06    2.8153431E-07    1.9220510E+06
   -1.39   500.000   -1.633E-01    1.9900930E+06    1.1529948E-07    1.1518662E-07    1.9900930E+06    2.8837061E-07    1.9900930E+06
   -1.38   500.000   -1.694E-01    2.0588606E+06    1.1736808E-07    1.1732367E-07    2.0588606E+06    2.9393232E-07    2.0588606E+06
   -1.37   500.000   -1.755E-01    2.1282682E+06    1.1902290E-07    1.1905150E-07    2.1282682E+06    2.9829433E-07    2.1282682E+06
   -1.36   500.000   -1.816E-01    2.1982397E+06    1.2030601E-07    1.2041263E-07    2.1982397E+06    3.0158274E-07    2.1982397E+06
   -1.35   500.000   -1.879E-01    2.2687185E+06    1.2126757E-07    1.2145778E-07    2.2687185E+06    3.0393662E-07    2.2687185E+06
   -1.34   500.000   -1.943E-01    2.3396678E+06    1.2195707E-07    1.2223682E-07    2.3396678E+06    3.0548486E-07    2.3396678E+06
   -1.33   500.000   -2.007E-01    2.4110607E+06    1.2242091E-07    1.2279608E-07    2.4110607E+06    3.0634523E-07    2.4110607E+06
   -1.32   500.000   -2.072E-01    2.4828699E+06    1.2270572E-07    1.2318153E-07    2.4828699E+06    3.0664220E-07    2.4828699E+06
   -1.31   500.000   -2.138E-01    2.5550634E+06    1.2286300E-07    1.2344352E-07    2.5550634E+06    3.0652928E-07    2.5550634E+06
   -1.30   500.000   -2.205E-01    2.6276088E+06    1.2295044E-07    1.2363835E-07    2.6276088E+06    3.0619965E-07    2.6276088E+06
   -1.29   500.000   -2.273E-01    2.7004835E+06    1.2302698E-07    1.2382385E-07    2.7004835E+06    3.0587488E-07    2.7004835E+06
   -1.28   500.000   -2.342E-01    2.7736837E+06    1.2314341E-07    1.2405024E-07    2.7736837E+06    3.0577448E-07    2.7736837E+06
   -1.27   500.000   -2.411E-01    2.8472251E+06    1.2333297E-07    1.2435083E-07    2.8472251E+06    3.0607846E-07    2.8472251E+06
   -1.26   500.000   -2.481E-01    2.9211330E+06    1.2360655E-07    1.2473705E-07    2.9211330E+06    3.0689693E-07    2.9211330E+06
   -1.25   500.000   -2.552E-01    2.9954288E+06    1.2395433E-07    1.2519953E-07    2.9954288E+06    3.0825492E-07    2.9954288E+06
   -1.24   500.000   -2.624E-01    3.0701189E+06    1.2435182E-07    1.2571367E-07    3.0701189E+06    3.1009212E-07    3.0701189E+06
   -1.23   500.000   -2.697E-01    3.1451950E+06    1.2476676E-07    1.2624605E-07    3.1451950E+06    3.1227284E-07    3.1451950E+06
   -1.22   500.000   -2.771E-01    3.2206427E+06    1.2516377E-07    1.2675908E-07    3.2206427E+06    3.1460094E-07    3.2206427E+06
   -1.21   500.000   -2.845E-01    3.2964511E+06    1.2550607E-07    1.2721310E-07    3.2964511E+06    3.1683729E-07    3.2964511E+06
   -1.20   500.000   -2.920E-01    3.3726161E+06    1.2575556E-07    1.2756707E-07    3.3726161E+06    3.1871951E-07    3.3726161E+06
   -1.19   500.000   -2.996E-01    3.4491345E+06    1.2587385E-07    1.2778032E-07    3.4491345E+06    3.1998542E-07    3.4491345E+06
   -1.18   500.000   -3.073E-01    3.5259932E+06    1.2582640E-07    1.2781724E-07    3.5259932E+06    3.2040167E-07    3.5259932E+06
   -1.17   500.000   -3.151E-01    3.6031615E+06    1.2559083E-07    1.2765570E-07    3.6031615E+06    3.1979789E-07    3.6031615E+06
   -1.16   500.000   -3.229E-01    3.6805934E+06    1.2516818E-07    1.2729799E-07    3.6805934E+06    3.1810333E-07    3.6805934E+06
   -1.15   500.000   -3.309E-01    3.7582403E+06    1.2459343E-07    1.2678075E-07    3.7582403E+06    3.1537825E-07    3.7582403E+06
   -1.14   500.000   -3.389E-01    3.8360717E+06    1.2394061E-07    1.2617938E-07    3.8360717E+06    3.1182900E-07    3.8360717E+06
   -1.13   500.000   -3.470E-01    3.9140921E+06    1.2331840E-07    1.2560303E-07    3.9140921E+06    3.0779712E-07    3.9140921E+06
   -1.12   500.000   -3.552E-01    3.9923479E+06    1.2285588E-07    1.2518006E-07    3.9923479E+06    3.0372051E-07    3.9923479E+06
   -1.11   500.000   -3.634E-01    4.0709167E+06    1.2268205E-07    1.2503773E-07    4.0709167E+06    3.0007519E-07    4.0709167E+06
   -1.10   500.000   -3.718E-01    4.1498868E+06    1.2290587E-07    1.2528259E-07    4.1498868E+06    2.9731356E-07    4.1498868E+06
   -1.09   500.000   -3.802E-01    4.2293327E+06    1.2360274E-07    1.2598771E-07    4.2293327E+06    2.9581504E-07    4.2293327E+06
   -1.08   500.000   -3.888E-01    4.3092964E+06    1.2481015E-07    1.2718916E-07    4.3092964E+06    2.9585776E-07    4.3092964E+06
   -1.07   500.000   -3.974E-01    4.3897780E+06    1.2653126E-07    1.2889027E-07    4.3897780E+06    2.9761052E-07    4.3897780E+06
   -1.06   500.000   -4.061E-01    4.4707373E+06    1.2874213E-07    1.3106929E-07    4.4707373E+06    3.0113738E-07    4.4707373E+06
   -1.05   500.000   -4.149E-01    4.5521039E+06    1.3139836E-07    1.3368595E-07    4.5521039E+06    3.0640590E-07    4.5521039E+06
   -1.04   500.000   -4.238E-01    4.6337941E+06    1.3443852E-07    1.3668428E-07    4.6337941E+06    3.1329295E-07    4.6337941E+06
   -1.03   500.000   -4.327E-01    4.7157250E+06    1.3778364E-07    1.3999113E-07    4.7157250E+06    3.2158614E-07    4.7157250E+06
   -1.02   500.000   -4.418E-01    4.7978183E+06    1.4133428E-07    1.4351210E-07    4.7978183E+06    3.3098352E-07    4.7978183E+06
   -1.01   500.000   -4.510E-01    4.8799879E+06    1.4496824E-07    1.4712840E-07    4.8799879E+06    3.4109713E-07    4.8799879E+06
   -1.00   500.000   -4.602E-01    4.9621195E+06    1.4854275E-07    1.5069835E-07    4.9621195E+06    3.5146835E-07    4.9621195E+06
   -0.99   500.000   -4.695E-01    5.0440567E+06    1.5190433E-07    1.5406718E-07    5.0440567E+06    3.6160164E-07    5.0440567E+06
   -0.98   500.000   -4.790E-01    5.1256126E+06    1.5490761E-07    1.5708593E-07    5.1256126E+06    3.7101860E-07    5.1256126E+06
   -0.97   500.000   -4.885E-01    5.2066117E+06    1.5744026E-07    1.5963694E-07    5.2066117E+06    3.7932620E-07    5.2066117E+06
   -0.96   500.000   -4.981E-01    5.2869523E+06    1.5944789E-07    1.6165949E-07    5.2869523E+06    3.8628509E-07    5.2869523E+06
   -0.95   500.000   -5.078E-01    5.3666624E+06    1.6095102E-07    1.6316778E-07    5.3666624E+06    3.9185947E-07    5.3666625E+06
   -0.94   500.000   -5.177E-01    5.4459196E+06    1.6204770E-07    1.6425454E-07    5.4459196E+06    3.9623245E-07    5.4459196E+06
   -0.93   500.000   -5.276E-01    5.5250171E+06    1.6289932E-07    1.6507762E-07    5.5250171E+06    3.9977859E-07    5.5250171E+06
   -0.92   500.000   -5.376E-01    5.6042828E+06    1.6370194E-07    1.6583186E-07    5.6042828E+06    4.0299711E-07    5.6042829E+06
   -0.91   500.000   -5.477E-01    5.6839810E+06    1.6465021E-07    1.6671282E-07    5.6839810E+06    4.0642010E-07    5.6839810E+06
   -0.90   500.000   -5.580E-01    5.7642349E+06    1.6590236E-07    1.6788148E-07    5.7642349E+06    4.1051741E-07    5.7642349E+06
   -0.89   500.000   -5.683E-01    5.8450025E+06    1.6755522E-07    1.6943846E-07    5.8450025E+06    4.1562055E-07    5.8450026E+06
   -0.88   500.000   -5.788E-01    5.9261093E+06    1.6963412E-07    1.7141326E-07    5.9261093E+06    4.2188161E-07    5.9261094E+06
   -0.87   500.000   -5.893E-01    6.0073206E+06    1.7209826E-07    1.7376893E-07    6.0073206E+06    4.2927098E-07    6.0073207E+06
   -0.86   500.000   -6.000E-01    6.0884228E+06    1.7485679E-07    1.7641766E-07    6.0884228E+06    4.3760554E-07    6.0884229E+06
   -0.85   500.000   -6.108E-01    6.1692837E+06    1.7778842E-07    1.7924027E-07    6.1692837E+06    4.4659176E-07    6.1692839E+06
   -0.84   500.000   -6.218E-01    6.2498772E+06    1.8075853E-07    1.8210355E-07    6.2498772E+06    4.5586942E-07    6.2498775E+06
   -0.83   500.000   -6.328E-01    6.3302706E+06    1.8363100E-07    1.8487254E-07    6.3302706E+06    4.6504933E-07    6.3302710E+06
   -0.82   500.000   -6.440E-01    6.4105842E+06    1.8627560E-07    1.8741856E-07    6.4105842E+06    4.7374532E-07    6.4105847E+06
   -0.81   500.000   -6.553E-01    6.4909381E+06    1.8857333E-07    1.8962520E-07    6.4909381E+06    4.8160358E-07    6.4909387E+06
   -0.80   500.000   -6.668E-01    6.5713970E+06    1.9042183E-07    1.9139392E-07    6.5713970E+06    4.8832962E-07    6.5713977E+06
   -0.79   500.000   -6.784E-01    6.6519218E+06    1.9174048E-07    1.9264926E-07    6.6519218E+06    4.9370896E-07    6.6519227E+06
   -0.78   500.000   -6.902E-01    6.7323353E+06    1.9247450E-07    1.9334250E-07    6.7323353E+06    4.9761675E-07    6.7323364E+06
   -0.77   500.000   -7.021E-01    6.8123136E+06    1.9259686E-07    1.9345298E-07    6.8123136E+06    5.0001451E-07    6.8123150E+06
   -0.76   500.000   -7.142E-01    6.8914122E+06    1.9210839E-07    1.9298734E-07    6.8914122E+06    5.0093806E-07    6.8914140E+06
   -0.75   500.000   -7.264E-01    6.9691316E+06    1.9103752E-07    1.9197829E-07    6.9691316E+06    5.0048440E-07    6.9691339E+06
   -0.74   500.000   -7.388E-01    7.0450102E+06    1.8944060E-07    1.9048398E-07    7.0450102E+06    4.9880434E-07    7.0450131E+06
   -0.73   500.000   -7.514E-01    7.1187173E+06    1.8740251E-07    1.8858775E-07    7.1187173E+06    4.9610142E-07    7.1187209E+06
   -0.72   500.000   -7.642E-01    7.1901173E+06    1.8503503E-07    1.8639623E-07    7.1901173E+06    4.9263082E-07    7.1901219E+06
   -0.71   500.000   -7.772E-01    7.2592820E+06    1.8247022E-07    1.8403270E-07    7.2592820E+06    4.8868803E-07    7.2592878E+06
   -0.70   500.000   -7.903E-01    7.3264461E+06    1.7984712E-07    1.8162444E-07    7.3264461E+06    4.8458057E-07    7.3264534E+06
   -0.69   500.000   -8.037E-01    7.3919187E+06    1.7729307E-07    1.7928519E-07    7.3919187E+06    4.8058427E-07    7.3919279E+06
   -0.68   500.000   -8.172E-01    7.4559729E+06    1.7490407E-07    1.7709686E-07    7.4559729E+06    4.7689464E-07    7.4559845E+06
   -0.67   500.000   -8.309E-01    7.5187450E+06    1.7272918E-07    1.7509566E-07    7.5187450E+06    4.7358789E-07    7.5187596E+06
   -0.66   500.000   -8.448E-01    7.5801743E+06    1.7076375E-07    1.7326694E-07    7.5801743E+06    4.7060508E-07    7.5801928E+06
   -0.65   500.000   -8.588E-01    7.6400041E+06    1.6895324E-07    1.7155047E-07    7.6400041E+06    4.6776605E-07    7.6400274E+06
   -0.64   500.000   -8.729E-01    7.6978443E+06    1.6720713E-07    1.6985530E-07    7.6978443E+06    4.6481170E-07    7.6978736E+06
   -0.63   500.000   -8.872E-01    7.7532751E+06    1.6541993E-07    1.6808092E-07    7.7532751E+06    4.6146584E-07    7.7533121E+06
   -0.62   500.000   -9.017E-01    7.8059565E+06    1.6349477E-07    1.6614021E-07    7.8059565E+06    4.5750269E-07    7.8060032E+06
   -0.61   500.000   -9.162E-01    7.8557114E+06    1.6136460E-07    1.6397908E-07    7.8557114E+06    4.5280353E-07    7.8557703E+06
   -0.60   500.000   -9.308E-01    7.9025644E+06    1.5900629E-07    1.6158828E-07    7.9025644E+06    4.4738792E-07    7.9026386E+06
   -0.59   500.000   -9.455E-01    7.9467300E+06    1.5644431E-07    1.5900464E-07    7.9467300E+06    4.4141079E-07    7.9468236E+06
   -0.58   500.000   -9.602E-01    7.9885516E+06    1.5374368E-07    1.5630166E-07    7.9885516E+06    4.3512708E-07    7.9886695E+06
   -0.57   500.000   -9.751E-01    8.0283973E+06    1.5099450E-07    1.5357260E-07    8.0283973E+06    4.2883519E-07    8.0285459E+06
   -0.56   500.000   -9.899E-01    8.0665292E+06    1.4829270E-07    1.5091082E-07    8.0665292E+06    4.2281589E-07    8.0667163E+06
   -0.55   500.000   -1.005E+00    8.1029791E+06    1.4572173E-07    1.4839248E-07    8.1029791E+06    4.1728154E-07    8.1032148E+06
   -0.54   500.000   -1.020E+00    8.1374722E+06    1.4333873E-07    1.4606456E-07    8.1374722E+06    4.1234423E-07    8.1377688E+06
   -0.53   500.000   -1.035E+00    8.1694332E+06    1.4116681E-07    1.4393969E-07    8.1694332E+06    4.0800485E-07    8.1698066E+06
   -0.52   500.000   -1.050E+00    8.1980819E+06    1.3919385E-07    1.4199716E-07    8.1980819E+06    4.0416148E-07    8.1985514E+06
   -0.51   500.000   -1.065E+00    8.2225906E+06    1.3737692E-07    1.4018906E-07    8.2225906E+06    4.0063387E-07    8.2231805E+06
   -0.50   500.000   -1.080E+00    8.2422571E+06    1.3565166E-07    1.3845018E-07    8.2422571E+06    3.9720045E-07    8.2429977E+06
   -0.49   500.000   -1.095E+00    8.2566438E+06    1.3394482E-07    1.3671020E-07    8.2566438E+06    3.9364252E-07    8.2575724E+06
   -0.48   500.000   -1.110E+00    8.2656546E+06    1.3218813E-07    1.3490633E-07    8.2656546E+06    3.8978812E-07    8.2668172E+06
   -0.47   500.000   -1.125E+00    8.2695474E+06    1.3033127E-07    1.3299482E-07    8.2695474E+06    3.8554718E-07    8.2710004E+06
   -0.46   500.000   -1.140E+00    8.2688945E+06    1.2835190E-07    1.3095958E-07    8.2688945E+06    3.8093094E-07    8.2707060E+06
   -0.45   500.000   -1.154E+00    8.2644991E+06    1.2626101E-07    1.2881651E-07    8.2644991E+06    3.7605213E-07    8.2667513E+06
   -0.44   500.000   -1.169E+00    8.2572705E+06    1.2410252E-07    1.2661273E-07    8.2572705E+06    3.7110683E-07    8.2600605E+06
   -0.43   500.000   -1.184E+00    8.2480583E+06    1.2194729E-07    1.2442045E-07    8.2480583E+06    3.6634274E-07    8.2514997E+06
   -0.42   500.000   -1.198E+00    8.2374713E+06    1.1988236E-07    1.2232665E-07    8.2374713E+06    3.6202117E-07    8.2416937E+06
   -0.41   500.000   -1.213E+00    8.2257266E+06    1.1799775E-07    1.2042028E-07    8.2257266E+06    3.5838029E-07    8.2308742E+06
   -0.40   500.000   -1.227E+00    8.2125924E+06    1.1637352E-07    1.1877984E-07    8.2125924E+06    3.5560590E-07    8.2188197E+06
   -0.39   500.000   -1.241E+00    8.1974636E+06    1.1506984E-07    1.1746399E-07    8.1974636E+06    3.5381419E-07    8.2049287E+06
   -0.38   500.000   -1.255E+00    8.1795671E+06    1.1412221E-07    1.1650706E-07    8.1795671E+06    3.5304831E-07    8.1884212E+06
   -0.37   500.000   -1.269E+00    8.1582346E+06    1.1354236E-07    1.1592022E-07    8.1582346E+06    3.5328775E-07    8.1686084E+06
   -0.36   500.000   -1.283E+00    8.1331510E+06    1.1332364E-07    1.1569698E-07    8.1331510E+06    3.5446681E-07    8.1451385E+06
   -0.35   500.000   -1.297E+00    8.1044913E+06    1.1344818E-07    1.1582007E-07    8.1044913E+06    3.5649532E-07    8.1181337E+06
   -0.34   500.000   -1.311E+00    8.0729083E+06    1.1389230E-07    1.1626660E-07    8.0729083E+06    3.5927428E-07    8.0881806E+06
   -0.33   500.000   -1.324E+00    8.0393923E+06    1.1462779E-07    1.1700892E-07    8.0393923E+06    3.6270055E-07    8.0561961E+06
   -0.32   500.000   -1.337E+00    8.0050694E+06    1.1561902E-07    1.1801150E-07    8.0050694E+06    3.6666111E-07    8.0232344E+06
   -0.31   500.000   -1.350E+00    7.9710096E+06    1.1681864E-07    1.1922666E-07    7.9710096E+06    3.7102330E-07    7.9903046E+06
   -0.30   500.000   -1.364E+00    7.9380878E+06    1.1816587E-07    1.2059324E-07    7.9380878E+06    3.7563115E-07    7.9582394E+06
   -0.29   500.000   -1.377E+00    7.9069033E+06    1.1959026E-07    1.2204077E-07    7.9069033E+06    3.8031438E-07    7.9276189E+06
   -0.28   500.000   -1.389E+00    7.8777371E+06    1.2102023E-07    1.2349845E-07    7.8777371E+06    3.8490775E-07    7.8987280E+06
   -0.27   500.000   -1.402E+00    7.8505276E+06    1.2239275E-07    1.2490493E-07    7.8505276E+06    3.8927030E-07    7.8715284E+06
   -0.26   500.000   -1.415E+00    7.8248624E+06    1.2365960E-07    1.2621427E-07    7.8248624E+06    3.9329267E-07    7.8456441E+06
   -0.25   500.000   -1.428E+00    7.8000028E+06    1.2478772E-07    1.2739559E-07    7.8000028E+06    3.9688822E-07    7.8203801E+06
   -0.24   500.000   -1.441E+00    7.7749657E+06    1.2575481E-07    1.2842799E-07    7.7749657E+06    3.9997434E-07    7.7947985E+06
   -0.23   500.000   -1.454E+00    7.7486734E+06    1.2654358E-07    1.2929411E-07    7.7486734E+06    4.0245705E-07    7.7678648E+06
   -0.22   500.000   -1.466E+00    7.7201614E+06    1.2713798E-07    1.2997617E-07    7.7201614E+06    4.0422953E-07    7.7386525E+06
   -0.21   500.000   -1.479E+00    7.6888098E+06    1.2752272E-07    1.3045590E-07    7.6888098E+06    4.0518691E-07    7.7065734E+06
   -0.20   500.000   -1.492E+00    7.6545484E+06    1.2768545E-07    1.3071736E-07    7.6545484E+06    4.0525116E-07    7.6715815E+06
   -0.19   500.000   -1.505E+00    7.6179752E+06    1.2761965E-07    1.3075085E-07    7.6179752E+06    4.0439505E-07    7.6342927E+06
   -0.18   500.000   -1.518E+00    7.5803405E+06    1.2732653E-07    1.3055564E-07    7.5803405E+06    4.0265555E-07    7.5959686E+06
   -0.17   500.000   -1.531E+00    7.5433668E+06    1.2681472E-07    1.3014015E-07    7.5433668E+06    4.0013060E-07    7.5583390E+06
   -0.16   500.000   -1.545E+00    7.5089198E+06    1.2609679E-07    1.2951856E-07    7.5089198E+06    3.9695785E-07    7.5232735E+06
   -0.15   500.000   -1.558E+00    7.4785905E+06    1.2518262E-07    1.2870376E-07    7.4785905E+06    3.9327804E-07    7.4923647E+06
   -0.14   500.000   -1.572E+00    7.4532859E+06    1.2407050E-07    1.2769768E-07    7.4532859E+06    3.8919082E-07    7.4665189E+06
   -0.13   500.000   -1.586E+00    7.4329385E+06    1.2273903E-07    1.2648209E-07    7.4329385E+06    3.8471607E-07    7.4456658E+06
   -0.12   500.000   -1.600E+00    7.4164281E+06    1.2114408E-07    1.2501456E-07    7.4164281E+06    3.7977640E-07    7.4286810E+06
   -0.11   500.000   -1.615E+00    7.4017609E+06    1.1922489E-07    1.2323359E-07    7.4017609E+06    3.7421286E-07    7.4135659E+06
   -0.10   500.000   -1.630E+00    7.3864856E+06    1.1691975E-07    1.2107390E-07    7.3864856E+06    3.6783529E-07    7.3978646E+06
   -0.09   500.000   -1.645E+00    7.3682475E+06    1.1418773E-07    1.1848830E-07    7.3682475E+06    3.6049360E-07    7.3792197E+06
   -0.08   500.000   -1.660E+00    7.3453351E+06    1.1102828E-07    1.1546807E-07    7.3453351E+06    3.5214428E-07    7.3559190E+06
   -0.07   500.000   -1.676E+00    7.3170645E+06    1.0749074E-07    1.1205374E-07    7.3170645E+06    3.4288619E-07    7.3272783E+06
   -0.06   500.000   -1.693E+00    7.2839052E+06    1.0366976E-07    1.0833175E-07    7.2839052E+06    3.3295238E-07    7.2937673E+06
   -0.05   500.000   -1.709E+00    7.2473438E+06    9.9688914E-08    1.0441939E-07    7.2473438E+06    3.2266513E-07    7.2568713E+06
   -0.04   500.000   -1.726E+00    7.2095616E+06    9.5680148E-08    1.0044492E-07    7.2095616E+06    3.1237673E-07    7.2187683E+06
   -0.03   500.000   -1.744E+00    7.1730354E+06    9.1767226E-08    9.6531315E-08    7.1730354E+06    3.0242114E-07    7.1819307E+06
   -0.02   500.000   -1.762E+00    7.1401538E+06    8.8058200E-08    9.2788380E-08    7.1401538E+06    2.9309178E-07    7.1487421E+06
   -0.01   500.000   -1.780E+00    7.1128961E+06    8.4647183E-08    8.9313848E-08    7.1128961E+06    2.8464592E-07    7.1211791E+06
    0.00   500.000   -1.799E+00    7.0925915E+06    8.1622005E-08    8.6200158E-08    7.0925915E+06    2.7732480E-07    7.1005699E+06
    0.01   500.000   -1.817E+00    7.0797654E+06    7.9073074E-08    8.3542569E-08    7.0797654E+06    2.7137591E-07    7.0874413E+06
    0.02   500.000   -1.836E+00    7.0740920E+06    7.7099705E-08    8.1445067E-08    7.0740920E+06    2.6706714E-07    7.0814695E+06
    0.03   500.000   -1.856E+00    7.0744792E+06    7.5812434E-08    8.0022588E-08    7.0744792E+06    2.6469059E-07    7.0815642E+06
    0.04   500.000   -1.875E+00    7.0793024E+06    7.5332117E-08    7.9400223E-08    7.0793024E+06    2.6456036E-07    7.0861012E+06
    0.05   500.000   -1.894E+00    7.0867686E+06    7.5787924E-08    7.9711315E-08    7.0867686E+06    2.6701103E-07    7.0932871E+06
    0.06   500.000   -1.914E+00    7.0953472E+06    7.7316140E-08    8.1096186E-08    7.0953472E+06    2.7240142E-07    7.1015917E+06
    0.07   500.000   -1.933E+00    7.1041765E+06    8.0060133E-08    8.3701860E-08    7.1041765E+06    2.8112205E-07    7.1101560E+06
    0.08   500.000   -1.953E+00    7.1133546E+06    8.4169971E-08    8.7681382E-08    7.1133546E+06    2.9359934E-07    7.1190830E+06
    0.09   500.000   -1.972E+00    7.1240536E+06    8.9798854E-08    9.3190033E-08    7.1240536E+06    3.1028704E-07    7.1295523E+06
    0.10   500.000   -1.992E+00    7.1384460E+06    9.7093409E-08    1.0037555E-07    7.1384460E+06    3.3163627E-07    7.1437429E+06
    0.11   500.000   -2.011E+00    7.1594635E+06    1.0617590E-07    1.0936037E-07    7.1594635E+06    3.5803995E-07    7.1645909E+06
    0.12   500.000   -2.031E+00    7.1904323E+06    1.1711814E-07    1.2021553E-07    7.1904323E+06    3.8975243E-07    7.1954223E+06
    0.13   500.000   -2.050E+00    7.2346317E+06    1.2990900E-07    1.3292838E-07    7.2346317E+06    4.2679125E-07    7.2395114E+06
    0.14   500.000   -2.070E+00    7.2948214E+06    1.4441995E-07    1.4736835E-07    7.2948214E+06    4.6883364E-07    7.2996088E+06
    0.15   500.000   -2.090E+00    7.3727899E+06    1.6037514E-07    1.6325782E-07    7.3727899E+06    5.1512689E-07    7.3774931E+06
    0.16   500.000   -2.111E+00    7.4689866E+06    1.7733483E-07    1.8015630E-07    7.4689866E+06    5.6443692E-07    7.4736052E+06
    0.17   500.000   -2.131E+00    7.5823073E+06    1.9470093E-07    1.9746683E-07    7.5823073E+06    6.1506054E-07    7.5868374E+06
    0.18   500.000   -2.152E+00    7.7101009E+06    2.1175181E-07    2.1447090E-07    7.7101009E+06    6.6492201E-07    7.7145399E+06
    0.19   500.000   -2.174E+00    7.8484194E+06    2.2770773E-07    2.3039317E-07    7.8484194E+06    7.1175905E-07    7.8527712E+06
    0.20   500.000   -2.195E+00    7.9924741E+06    2.4182021E-07    2.4448933E-07    7.9924741E+06    7.5338038E-07    7.9967510E+06
# T(K) = 600.00   Npoints =     441   V(cm^3) =  3.848E-22
   -4.20   600.000    9.724E+00    7.3388880E+05    3.7458670E-08    3.7576122E-08    7.3388880E+05    9.3036815E-08    7.3428355E+05
   -4.19   600.000    9.685E+00    7.7410245E+05    4.1957283E-08    4.2087583E-08    7.7410245E+05    1.0419173E-07    7.7450029E+05
   -4.18   600.000    9.642E+00    8.1349757E+05    4.6873003E-08    4.7016759E-08    8.1349757E+05    1.1635252E-07    8.1389732E+05
   -4.17   600.000    9.594E+00    8.5173841E+05    5.2185942E-08    5.2343484E-08    8.5173841E+05    1.2946801E-07    8.5213918E+05
   -4.16   600.000    9.541E+00    8.8848642E+05    5.7855642E-08    5.8027018E-08    8.8848642E+05    1.4343834E-07    8.8888761E+05
   -4.15   600.000    9.482E+00    9.2340941E+05    6.3818378E-08    6.4003362E-08    9.2340941E+05    1.5810879E-07    9.2381070E+05
   -4.14   600.000    9.417E+00    9.5619740E+05    6.9985749E-08    7.0183865E-08    9.5619740E+05    1.7326662E-07    9.5659868E+05
   -4.13   600.000    9.346E+00    9.8658577E+05    7.6244951E-08    7.6455495E-08    9.8658577E+05    1.8864205E-07    9.8698717E+05
   -4.12   600.000    9.269E+00    1.0143849E+06    8.2461011E-08    8.2683077E-08    1.0143849E+06    2.0391400E-07    1.0147867E+06
   -4.11   600.000    9.186E+00    1.0395140E+06    8.8481198E-08    8.8713714E-08    1.0395140E+06    2.1872112E-07    1.0399165E+06
   -4.10   600.000    9.096E+00    1.0620339E+06    9.4141763E-08    9.4383526E-08    1.0620339E+06    2.3267838E-07    1.0624376E+06
   -4.09   600.000    9.001E+00    1.0821756E+06    9.9277048E-08    9.9526779E-08    1.0821756E+06    2.4539892E-07    1.0825807E+06
   -4.08   600.000    8.900E+00    1.1003553E+06    1.0373084E-07    1.0398724E-07    1.1003553E+06    2.5652089E-07    1.1007622E+06
   -4.07   600.000    8.794E+00    1.1171749E+06    1.0736935E-07    1.0763116E-07    1.1171749E+06    2.6573747E-07    1.1175833E+06
   -4.06   600.000    8.683E+00    1.1333999E+06    1.1009473E-07    1.1036079E-07    1.1333999E+06    2.7282759E-07    1.1338094E+06
   -4.05   600.000    8.568E+00    1.1499184E+06    1.1185727E-07    1.1212655E-07    1.1499184E+06    2.7768319E-07    1.1503280E+06
   -4.04   600.000    8.449E+00    1.1676798E+06    1.1266420E-07    1.1293580E-07    1.1676798E+06    2.8032853E-07    1.1680880E+06
   -4.03   600.000    8.328E+00    1.1876220E+06    1.1258299E-07    1.1285615E-07    1.1876220E+06    2.8092680E-07    1.1880266E+06
   -4.02   600.000    8.204E+00    1.2105925E+06    1.1173777E-07    1.1201179E-07    1.2105925E+06    2.7977131E-07    1.2109907E+06
   -4.01   600.000    8.079E+00    1.2372746E+06    1.1029878E-07    1.1057295E-07    1.2372746E+06    2.7726065E-07    1.2376632E+06
   -4.00   600.000    7.952E+00    1.2681260E+06    1.0846574E-07    1.0873927E-07    1.2681260E+06    2.7386051E-07    1.2685016E+06
   -3.99   600.000    7.824E+00    1.3033376E+06    1.0644787E-07    1.0671972E-07    1.3033376E+06    2.7005727E-07    1.3036968E+06
   -3.98   600.000    7.695E+00    1.3428158E+06    1.0444307E-07    1.0471189E-07    1.3428158E+06    2.6631011E-07    1.3431552E+06
   -3.97   600.000    7.566E+00    1.3861878E+06    1.0261962E-07    1.0288365E-07    1.3861878E+06    2.6300820E-07    1.3865047E+06
   -3.96   600.000    7.436E+00    1.4328289E+06    1.0110243E-07    1.0135942E-07    1.4328289E+06    2.6043855E-07    1.4331211E+06
   -3.95   600.000    7.305E+00    1.4819058E+06    9.9965392E-08    1.0021259E-07    1.4819058E+06    2.5876749E-07    1.4821720E+06
   -3.94   600.000    7.174E+00    1.5324315E+06    9.9230015E-08    9.9464216E-08    1.5324315E+06    2.5803691E-07    1.5326713E+06
   -3.93   600.000    7.042E+00    1.5833259E+06    9.8869768E-08    9.9087353E-08    1.5833259E+06    2.5817364E-07    1.5835394E+06
   -3.92   600.000    6.909E+00    1.6334783E+06    9.8818761E-08    9.9015841E-08    1.6334783E+06    2.5900927E-07    1.6336665E+06
   -3.91   600.000    6.775E+00    1.6818101E+06    9.8983075E-08    9.9155641E-08    1.6818101E+06    2.6030637E-07    1.6819744E+06
   -3.90   600.000    6.641E+00    1.7273323E+06    9.9252953E-08    9.9397064E-08    1.7273323E+06    2.6178734E-07    1.7274746E+06
   -3.89   600.000    6.508E+00    1.7691981E+06    9.9514297E-08    9.9626264E-08    1.7691981E+06    2.6316198E-07    1.7693205E+06
   -3.88   600.000    6.374E+00    1.8067460E+06    9.9658291E-08    9.9734854E-08    1.8067460E+06    2.6415110E-07    1.8068506E+06
   -3.87   600.000    6.241E+00    1.8395304E+06    9.9588475E-08    9.9626949E-08    1.8395304E+06    2.6450437E-07    1.8396192E+06
   -3.86   600.000    6.109E+00    1.8673366E+06    9.9225153E-08    9.9223534E-08    1.8673366E+06    2.6401182E-07    1.8674116E+06
   -3.85   600.000    5.978E+00    1.8901793E+06    9.8507404E-08    9.8464429E-08    1.8901793E+06    2.6250964E-07    1.8902425E+06
   -3.84   600.000    5.850E+00    1.9082835E+06    9.7393304E-08    9.7308458E-08    1.9082835E+06    2.5988156E-07    1.9083366E+06
   -3.83   600.000    5.724E+00    1.9220520E+06    9.5859091E-08    9.5732570E-08    1.9220520E+06    2.5605755E-07    1.9220963E+06
   -3.82   600.000    5.602E+00    1.9320228E+06    9.3897923E-08    9.3730558E-08    1.9320228E+06    2.5101152E-07    1.9320598E+06
   -3.81   600.000    5.483E+00    1.9388252E+06    9.1518700E-08    9.1311843E-08    1.9388252E+06    2.4475913E-07    1.9388561E+06
   -3.80   600.000    5.368E+00    1.9431388E+06    8.8745094E-08    8.8500480E-08    1.9431388E+06    2.3735601E-07    1.9431644E+06
   -3.79   600.000    5.257E+00    1.9456599E+06    8.5614671E-08    8.5334261E-08    1.9456599E+06    2.2889603E-07    1.9456812E+06
   -3.78   600.000    5.152E+00    1.9470800E+06    8.2177801E-08    8.1863618E-08    1.9470800E+06    2.1950892E-07    1.9470976E+06
   -3.77   600.000    5.051E+00    1.9480722E+06    7.8496017E-08    7.8149986E-08    1.9480722E+06    2.0935619E-07    1.9480868E+06
   -3.76   600.000    4.956E+00    1.9492847E+06    7.4639612E-08    7.4263423E-08    1.9492847E+06    1.9862499E-07    1.9492968E+06
   -3.75   600.000    4.867E+00    1.9513364E+06    7.0684411E-08    7.0279411E-08    1.9513364E+06    1.8751966E-07    1.9513464E+06
   -3.74   600.000    4.783E+00    1.9548099E+06    6.6707863E-08    6.6274999E-08    1.9548099E+06    1.7625145E-07    1.9548181E+06
   -3.73   600.000    4.704E+00    1.9602407E+06    6.2784771E-08    6.2324588E-08    1.9602407E+06    1.6502728E-07    1.9602475E+06
   -3.72   600.000    4.631E+00    1.9681025E+06    5.8983105E-08    5.8495790E-08    1.9681025E+06    1.5403869E-07    1.9681081E+06
   -3.71   600.000    4.563E+00    1.9787894E+06    5.5360381E-08    5.4845864E-08    1.9787894E+06    1.4345238E-07    1.9787941E+06
   -3.70   600.000    4.500E+00    1.9926015E+06    5.1961078E-08    5.1419157E-08    1.9926015E+06    1.3340339E-07    1.9926053E+06
   -3.69   600.000    4.442E+00    2.0097345E+06    4.8815403E-08    4.8245887E-08    2.0097345E+06    1.2399183E-07    2.0097377E+06
   -3.68   600.000    4.389E+00    2.0302789E+06    4.5939478E-08    4.5342321E-08    2.0302789E+06    1.1528300E-07    2.0302815E+06
   -3.67   600.000    4.339E+00    2.0542266E+06    4.3336803E-08    4.2712215E-08    2.0542266E+06    1.0731057E-07    2.0542288E+06
   -3.66   600.000    4.293E+00    2.0814861E+06    4.1000606E-08    4.0349126E-08    2.0814861E+06    1.0008163E-07    2.0814879E+06
   -3.65   600.000    4.251E+00    2.1119012E+06    3.8916653E-08    3.8239176E-08    2.1119012E+06    9.3582615E-08    2.1119027E+06
   -3.64   600.000    4.212E+00    2.1452708E+06    3.7066101E-08    3.6363862E-08    2.1452708E+06    8.7784976E-08    2.1452720E+06
   -3.63   600.000    4.175E+00    2.1813659E+06    3.5428113E-08    3.4702640E-08    2.1813659E+06    8.2650357E-08    2.1813669E+06
   -3.62   600.000    4.141E+00    2.2199417E+06    3.3982087E-08    3.3235123E-08    2.2199417E+06    7.8134932E-08    2.2199425E+06
   -3.61   600.000    4.109E+00    2.2607458E+06    3.2709421E-08    3.1942835E-08    2.2607458E+06    7.4193061E-08    2.2607464E+06
   -3.60   600.000    4.079E+00    2.3035220E+06    3.1594737E-08    3.0810436E-08    2.3035220E+06    7.0780242E-08    2.3035226E+06
   -3.59   600.000    4.051E+00    2.3480145E+06    3.0626522E-08    2.9826369E-08    2.3480145E+06    6.7855270E-08    2.3480149E+06
   -3.58   600.000    4.023E+00    2.3939709E+06    2.9797120E-08    2.8982860E-08    2.3939709E+06    6.5381406E-08    2.3939712E+06
   -3.57   600.000    3.997E+00    2.4411468E+06    2.9102102E-08    2.8275310E-08    2.4411468E+06    6.3326467E-08    2.4411471E+06
   -3.56   600.000    3.972E+00    2.4893088E+06    2.8539164E-08    2.7701196E-08    2.4893088E+06    6.1661928E-08    2.4893091E+06
   -3.55   600.000    3.947E+00    2.5382339E+06    2.8106787E-08    2.7258751E-08    2.5382339E+06    6.0361364E-08    2.5382342E+06
   -3.54   600.000    3.924E+00    2.5877046E+06    2.7802949E-08    2.6945680E-08    2.5877046E+06    5.9398748E-08    2.5877048E+06
   -3.53   600.000    3.900E+00    2.6374996E+06    2.7624138E-08    2.6758189E-08    2.6374996E+06    5.8747052E-08    2.6374997E+06
   -3.52   600.000    3.877E+00    2.6873846E+06    2.7564798E-08    2.6690447E-08    2.6873846E+06    5.8377476E-08    2.6873847E+06
   -3.51   600.000    3.854E+00    2.7371071E+06    2.7617219E-08    2.6734485E-08    2.7371071E+06    5.8259330E-08    2.7371072E+06
   -3.50   600.000    3.831E+00    2.7864000E+06    2.7771732E-08    2.6880416E-08    2.7864000E+06    5.8360384E-08    2.7864001E+06
   -3.49   600.000    3.808E+00    2.8349936E+06    2.8017044E-08    2.7116767E-08    2.8349936E+06    5.8647349E-08    2.8349937E+06
   -3.48   600.000    3.785E+00    2.8826358E+06    2.8340516E-08    2.7430776E-08    2.8826358E+06    5.9086166E-08    2.8826358E+06
   -3.47   600.000    3.762E+00    2.9291136E+06    2.8728303E-08    2.7808519E-08    2.9291136E+06    5.9641980E-08    2.9291137E+06
   -3.46   600.000    3.739E+00    2.9742712E+06    2.9165325E-08    2.8234879E-08    2.9742712E+06    6.0278873E-08    2.9742713E+06
   -3.45   600.000    3.715E+00    3.0180173E+06    2.9635195E-08    2.8693463E-08    3.0180173E+06    6.0959693E-08    3.0180174E+06
   -3.44   600.000    3.691E+00    3.0603221E+06    3.0120249E-08    2.9166608E-08    3.0603221E+06    6.1646370E-08    3.0603221E+06
   -3.43   600.000    3.667E+00    3.1012042E+06    3.0601829E-08    2.9635661E-08    3.1012042E+06    6.2301036E-08    3.1012043E+06
   -3.42   600.000    3.642E+00    3.1407140E+06    3.1060922E-08    3.0081592E-08    3.1407140E+06    6.2887964E-08    3.1407140E+06
   -3.41   600.000    3.617E+00    3.1789177E+06    3.1479114E-08    3.0485949E-08    3.1789177E+06    6.3376024E-08    3.1789178E+06
   -3.40   600.000    3.591E+00    3.2158897E+06    3.1839726E-08    3.0831979E-08    3.2158897E+06    6.3741041E-08    3.2158897E+06
   -3.39   600.000    3.565E+00    3.2517102E+06    3.2128886E-08    3.1105704E-08    3.2517102E+06    6.3967374E-08    3.2517102E+06
   -3.38   600.000    3.539E+00    3.2864698E+06    3.2336319E-08    3.1296715E-08    3.2864698E+06    6.4048201E-08    3.2864698E+06
   -3.37   600.000    3.512E+00    3.3202729E+06    3.2455675E-08    3.1398520E-08    3.3202729E+06    6.3984352E-08    3.3202730E+06
   -3.36   600.000    3.485E+00    3.3532361E+06    3.2484375E-08    3.1408410E-08    3.3532361E+06    6.3781994E-08    3.3532361E+06
   -3.35   600.000    3.457E+00    3.3854780E+06    3.2423073E-08    3.1326955E-08    3.3854780E+06    6.3449831E-08    3.3854781E+06
   -3.34   600.000    3.428E+00    3.4171018E+06    3.2274924E-08    3.1157301E-08    3.4171018E+06    6.2996581E-08    3.4171018E+06
   -3.33   600.000    3.400E+00    3.4481729E+06    3.2044887E-08    3.0904509E-08    3.4481729E+06    6.2429406E-08    3.4481730E+06
   -3.32   600.000    3.371E+00    3.4787000E+06    3.1739248E-08    3.0575097E-08    3.4787000E+06    6.1753632E-08    3.4787001E+06
   -3.31   600.000    3.341E+00    3.5086249E+06    3.1365447E-08    3.0176883E-08    3.5086249E+06    6.0973702E-08    3.5086250E+06
   -3.30   600.000    3.311E+00    3.5378257E+06    3.0932175E-08    2.9719069E-08    3.5378257E+06    6.0094913E-08    3.5378258E+06
   -3.29   600.000    3.281E+00    3.5661334E+06    3.0449589E-08    2.9212426E-08    3.5661334E+06    5.9125278E-08    3.5661335E+06
   -3.28   600.000    3.251E+00    3.5933571E+06    2.9929442E-08    2.8669384E-08    3.5933571E+06    5.8076860E-08    3.5933572E+06
   -3.27   600.000    3.220E+00    3.6193118E+06    2.9384943E-08    2.8103828E-08    3.6193118E+06    5.6966104E-08    3.6193119E+06
   -3.26   600.000    3.189E+00    3.6438403E+06    2.8830248E-08    2.7530535E-08    3.6438403E+06    5.5813083E-08    3.6438405E+06
   -3.25   600.000    3.158E+00    3.6668236E+06    2.8279634E-08    2.6964284E-08    3.6668236E+06    5.4639892E-08    3.6668238E+06
   -3.24   600.000    3.128E+00    3.6881773E+06    2.7746479E-08    2.6418802E-08    3.6881773E+06    5.3468682E-08    3.6881776E+06
   -3.23   600.000    3.096E+00    3.7078366E+06    2.7242269E-08    2.5905742E-08    3.7078366E+06    5.2319874E-08    3.7078370E+06
   -3.22   600.000    3.065E+00    3.7257361E+06    2.6775826E-08    2.5433915E-08    3.7257361E+06    5.1210966E-08    3.7257366E+06
   -3.21   600.000    3.034E+00    3.7417933E+06    2.6352880E-08    2.5008878E-08    3.7417933E+06    5.0156092E-08    3.7417939E+06
   -3.20   600.000    3.003E+00    3.7559031E+06    2.5976042E-08    2.4632937E-08    3.7559031E+06    4.9166281E-08    3.7559038E+06
   -3.19   600.000    2.972E+00    3.7679476E+06    2.5645127E-08    2.4305498E-08    3.7679476E+06    4.8250167E-08    3.7679484E+06
   -3.18   600.000    2.941E+00    3.7778205E+06    2.5357730E-08    2.4023688E-08    3.7778205E+06    4.7414864E-08    3.7778215E+06
   -3.17   600.000    2.910E+00    3.7854595E+06    2.5109960E-08    2.3783111E-08    3.7854595E+06    4.6666754E-08    3.7854607E+06
   -3.16   600.000    2.878E+00    3.7908788E+06    2.4897199E-08    2.3578638E-08    3.7908788E+06    4.6012040E-08    3.7908803E+06
   -3.15   600.000    2.847E+00    3.7941934E+06    2.4714810E-08    2.3405136E-08    3.7941934E+06    4.5457040E-08    3.7941952E+06
   -3.14   600.000    2.815E+00    3.7956287E+06    2.4558721E-08    2.3258064E-08    3.7956287E+06    4.5008242E-08    3.7956309E+06
   -3.13   600.000    2.783E+00    3.7955132E+06    2.4425812E-08    2.3133881E-08    3.7955132E+06    4.4672190E-08    3.7955159E+06
   -3.12   600.000    2.750E+00    3.7942569E+06    2.4314073E-08    2.3030211E-08    3.7942569E+06    4.4455237E-08    3.7942602E+06
   -3.11   600.000    2.717E+00    3.7923196E+06    2.4222523E-08    2.2945774E-08    3.7923196E+06    4.4363191E-08    3.7923236E+06
   -3.10   600.000    2.684E+00    3.7901772E+06    2.4150910E-08    2.2880085E-08    3.7901772E+06    4.4400868E-08    3.7901820E+06
   -3.09   600.000    2.649E+00    3.7882910E+06    2.4099264E-08    2.2833021E-08    3.7882910E+06    4.4571599E-08    3.7882969E+06
   -3.08   600.000    2.614E+00    3.7870847E+06    2.4067428E-08    2.2804335E-08    3.7870847E+06    4.4876765E-08    3.7870918E+06
   -3.07   600.000    2.577E+00    3.7869281E+06    2.4054678E-08    2.2793283E-08    3.7869281E+06    4.5315509E-08    3.7869367E+06
   -3.06   600.000    2.540E+00    3.7881261E+06    2.4059575E-08    2.2798457E-08    3.7881261E+06    4.5884731E-08    3.7881366E+06
   -3.05   600.000    2.500E+00    3.7909071E+06    2.4080099E-08    2.2817912E-08    3.7909071E+06    4.6579426E-08    3.7909198E+06
   -3.04   600.000    2.459E+00    3.7954070E+06    2.4114039E-08    2.2849538E-08    3.7954070E+06    4.7393289E-08    3.7954224E+06
   -3.03   600.000    2.416E+00    3.8016475E+06    2.4159506E-08    2.2891570E-08    3.8016475E+06    4.8319378E-08    3.8016662E+06
   -3.02   600.000    2.372E+00    3.8095107E+06    2.4215373E-08    2.2943015E-08    3.8095107E+06    4.9350549E-08    3.8095333E+06
   -3.01   600.000    2.325E+00    3.8187157E+06    2.4281454E-08    2.3003837E-08    3.8187157E+06    5.0479415E-08    3.8187430E+06
   -3.00   600.000    2.275E+00    3.8288056E+06    2.4358297E-08    2.3074751E-08    3.8288056E+06    5.1697675E-08    3.8288386E+06
   -2.99   600.000    2.224E+00    3.8391523E+06    2.4446596E-08    2.3156634E-08    3.8391523E+06    5.2994887E-08    3.8391922E+06
   -2.98   600.000    2.170E+00    3.8489824E+06    2.4546337E-08    2.3249672E-08    3.8489824E+06    5.4356880E-08    3.8490307E+06
   -2.97   600.000    2.113E+00    3.8574237E+06    2.4655892E-08    2.3352441E-08    3.8574237E+06    5.5764175E-08    3.8574819E+06
   -2.96   600.000    2.054E+00    3.8635647E+06    2.4771281E-08    2.3461150E-08    3.8635647E+06    5.7190770E-08    3.8636349E+06
   -2.95   600.000    1.992E+00    3.8665193E+06    2.4885771E-08    2.3569230E-08    3.8665193E+06    5.8603588E-08    3.8666038E+06
   -2.94   600.000    1.928E+00    3.8654843E+06    2.4989906E-08    2.3667345E-08    3.8654843E+06    5.9962789E-08    3.8655859E+06
   -2.93   600.000    1.862E+00    3.8597829E+06    2.5071945E-08    2.3743829E-08    3.8597829E+06    6.1222963E-08    3.8599048E+06
   -2.92   600.000    1.793E+00    3.8488892E+06    2.5118606E-08    2.3785434E-08    3.8488892E+06    6.2335105E-08    3.8490350E+06
   -2.91   600.000    1.723E+00    3.8324329E+06    2.5115984E-08    2.3778265E-08    3.8324329E+06    6.3249205E-08    3.8326069E+06
   -2.90   600.000    1.651E+00    3.8101897E+06    2.5050514E-08    2.3708766E-08    3.8101897E+06    6.3917165E-08    3.8103969E+06
   -2.89   600.000    1.579E+00    3.7820626E+06    2.4909879E-08    2.3564644E-08    3.7820626E+06    6.4295800E-08    3.7823083E+06
   -2.88   600.000    1.505E+00    3.7480616E+06    2.4683802E-08    2.3335681E-08    3.7480616E+06    6.4349627E-08    3.7483518E+06
   -2.87   600.000    1.431E+00    3.7082880E+06    2.4364698E-08    2.3014380E-08    3.7082880E+06    6.4053166E-08    3.7086292E+06
   -2.86   600.000    1.358E+00    3.6629252E+06    2.3948139E-08    2.2596434E-08    3.6629252E+06    6.3392552E-08    3.6633242E+06
   -2.85   600.000    1.285E+00    3.6122355E+06    2.3433152E-08    2.2080997E-08    3.6122355E+06    6.2366310E-08    3.6126995E+06
   -2.84   600.000    1.214E+00    3.5565600E+06    2.2822304E-08    2.1470759E-08    3.5565600E+06    6.0985300E-08    3.5570962E+06
   -2.83   600.000    1.145E+00    3.4963157E+06    2.2121591E-08    2.0771821E-08    3.4963157E+06    5.9271917E-08    3.4969311E+06
   -2.82   600.000    1.077E+00    3.4319865E+06    2.1340131E-08    1.9993380E-08    3.4319865E+06    5.7258705E-08    3.4326876E+06
   -2.81   600.000    1.012E+00    3.3641051E+06    2.0489669E-08    1.9147239E-08    3.3641051E+06    5.4986547E-08    3.3648978E+06
   -2.80   600.000    9.505E-01    3.2932278E+06    1.9583934E-08    1.8247163E-08    3.2932278E+06    5.2502573E-08    3.2941170E+06
   -2.79   600.000    8.915E-01    3.2199048E+06    1.8637862E-08    1.7308121E-08    3.2199048E+06    4.9857870E-08    3.2208943E+06
   -2.78   600.000    8.357E-01    3.1446527E+06    1.7666783E-08    1.6345473E-08    3.1446527E+06    4.7105112E-08    3.1457450E+06
   -2.77   600.000    7.831E-01    3.0679338E+06    1.6685616E-08    1.5374172E-08    3.0679338E+06    4.4296220E-08    3.0691304E+06
   -2.76   600.000    7.336E-01    2.9901458E+06    1.5708181E-08    1.4408070E-08    2.9901458E+06    4.1480211E-08    2.9914467E+06
   -2.75   600.000    6.873E-01    2.9116215E+06    1.4746671E-08    1.3459388E-08    2.9116215E+06    3.8701380E-08    2.9130256E+06
   -2.74   600.000    6.439E-01    2.8326358E+06    1.3811337E-08    1.2538386E-08    2.8326358E+06    3.5997942E-08    2.8341412E+06
   -2.73   600.000    6.034E-01    2.7534165E+06    1.2910359E-08    1.1653234E-08    2.7534165E+06    3.3401192E-08    2.7550202E+06
   -2.72   600.000    5.656E-01    2.6741540E+06    1.2049881E-08    1.0810042E-08    2.6741540E+06    3.0935170E-08    2.6758525E+06
   -2.71   600.000    5.304E-01    2.5950086E+06    1.1234151E-08    1.0013005E-08    2.5950086E+06    2.8616750E-08    2.5967980E+06
   -2.70   600.000    4.975E-01    2.5161132E+06    1.0465705E-08    9.2645995E-09    2.5161132E+06    2.6456068E-08    2.5179893E+06
   -2.69   600.000    4.669E-01    2.4375740E+06    9.7455629E-09    8.5657815E-09    2.4375740E+06    2.4457175E-08    2.4395325E+06
   -2.68   600.000    4.382E-01    2.3594705E+06    9.0734076E-09    7.9161799E-09    2.3594705E+06    2.2618850E-08    2.3615068E+06
   -2.67   600.000    4.114E-01    2.2818567E+06    8.4477629E-09    7.3142755E-09    2.2818567E+06    2.0935511E-08    2.2839663E+06
   -2.66   600.000    3.864E-01    2.2047666E+06    7.8661826E-09    6.7575925E-09    2.2047666E+06    1.9398191E-08    2.2069449E+06
   -2.65   600.000    3.629E-01    2.1282219E+06    7.3254776E-09    6.2429231E-09    2.1282219E+06    1.7995547E-08    2.1304643E+06
   -2.64   600.000    3.408E-01    2.0522420E+06    6.8219882E-09    5.7665964E-09    2.0522420E+06    1.6714850E-08    2.0545437E+06
   -2.63   600.000    3.201E-01    1.9768519E+06    6.3518870E-09    5.3247774E-09    1.9768519E+06    1.5542900E-08    1.9792083E+06
   -2.62   600.000    3.006E-01    1.9020864E+06    5.9114796E-09    4.9137647E-09    1.9020864E+06    1.4466793E-08    1.9044927E+06
   -2.61   600.000    2.822E-01    1.8279892E+06    5.4974626E-09    4.5302464E-09    1.8279892E+06    1.3474499E-08    1.8304407E+06
   -2.60   600.000    2.648E-01    1.7546072E+06    5.1071049E-09    4.1714790E-09    1.7546072E+06    1.2555238E-08    1.7570991E+06
   -2.59   600.000    2.484E-01    1.6819837E+06    4.7383345E-09    3.8353698E-09    1.6819837E+06    1.1699659E-08    1.6845115E+06
   -2.58   600.000    2.329E-01    1.6101533E+06    4.3897281E-09    3.5204616E-09    1.6101533E+06    1.0899880E-08    1.6127123E+06
   -2.57   600.000    2.182E-01    1.5391400E+06    4.0604195E-09    3.2258309E-09    1.5391400E+06    1.0149423E-08    1.5417258E+06
   -2.56   600.000    2.042E-01    1.4689603E+06    3.7499485E-09    2.9509286E-09    1.4689603E+06    9.4430935E-09    1.4715684E+06
   -2.55   600.000    1.909E-01    1.3996286E+06    3.4580834E-09    2.6953941E-09    1.3996286E+06    8.7768260E-09    1.4022548E+06
   -2.54   600.000    1.784E-01    1.3311635E+06    3.1846489E-09    2.4588812E-09    1.3311635E+06    8.1475195E-09    1.3338037E+06
   -2.53   600.000    1.664E-01    1.2635924E+06    2.9293891E-09    2.2409232E-09    1.2635924E+06    7.5528744E-09    1.2662426E+06
   -2.52   600.000    1.550E-01    1.1969541E+06    2.6918789E-09    2.0408557E-09    1.1969541E+06    6.9912364E-09    1.1996106E+06
   -2.51   600.000    1.441E-01    1.1312989E+06    2.4714889E-09    1.8577947E-09    1.1312989E+06    6.4614470E-09    1.1339576E+06
   -2.50   600.000    1.338E-01    1.0666865E+06    2.2673903E-09    1.6906586E-09    1.0666865E+06    5.9626982E-09    1.0693432E+06
   -2.49   600.000    1.240E-01    1.0031839E+06    2.0785854E-09    1.5382143E-09    1.0031839E+06    5.4943882E-09    1.0058339E+06
   -2.48   600.000    1.146E-01    9.4086436E+05    1.9039508E-09    1.3991322E-09    9.4086436E+05    5.0559771E-09    9.4350195E+05
   -2.47   600.000    1.057E-01    8.7980622E+05    1.7422838E-09    1.2720413E-09    8.7980622E+05    4.6468509E-09    8.8242490E+05
   -2.46   600.000    9.729E-02    8.2009431E+05    1.5923523E-09    1.1555810E-09    8.2009431E+05    4.2662054E-09    8.2268640E+05
   -2.45   600.000    8.925E-02    7.6182140E+05    1.4529472E-09    1.0484532E-09    7.6182140E+05    3.9129636E-09    7.6437808E+05
   -2.44   600.000    8.163E-02    7.0509009E+05    1.3229377E-09    9.4947232E-10    7.0509009E+05    3.5857396E-09    7.0760154E+05
   -2.43   600.000    7.440E-02    6.5001415E+05    1.2013250E-09    8.5761183E-10    6.5001415E+05    3.2828534E-09    6.5246973E+05
   -2.42   600.000    6.757E-02    5.9671862E+05    1.0872871E-09    7.7204040E-10    5.9671862E+05    3.0023955E-09    5.9910720E+05
   -2.41   600.000    6.114E-02    5.4533868E+05    9.8020636E-10    6.9214077E-10    5.4533868E+05    2.7423289E-09    5.4764897E+05
   -2.40   600.000    5.508E-02    4.9601698E+05    8.7967499E-10    6.1750687E-10    4.9601698E+05    2.5006126E-09    4.9823787E+05
   -2.39   600.000    4.941E-02    4.4889965E+05    7.8547559E-10    5.4791877E-10    4.4889965E+05    2.2753262E-09    4.5102057E+05
   -2.38   600.000    4.412E-02    4.0413121E+05    6.9754117E-10    4.8329904E-10    4.0413121E+05    2.0647764E-09    4.0614248E+05
   -2.37   600.000    3.920E-02    3.6184848E+05    6.1590121E-10    4.2365822E-10    3.6184848E+05    1.8675726E-09    3.6374165E+05
   -2.36   600.000    3.466E-02    3.2217392E+05    5.4062313E-10    3.6903817E-10    3.2217392E+05    1.6826635E-09    3.2394208E+05
   -2.35   600.000    3.048E-02    2.8520872E+05    4.7175854E-10    3.1946209E-10    2.8520872E+05    1.5093357E-09    2.8684678E+05
   -2.34   600.000    2.667E-02    2.5102618E+05    4.0930110E-10    2.7489741E-10    2.5102618E+05    1.3471790E-09    2.5253106E+05
   -2.33   600.000    2.322E-02    2.1966598E+05    3.5316029E-10    2.3523473E-10    2.1966598E+05    1.1960238E-09    2.2103674E+05
   -2.32   600.000    2.010E-02    1.9112995E+05    3.0315118E-10    2.0028262E-10    1.9112995E+05    1.0558629E-09    1.9236785E+05
   -2.31   600.000    1.732E-02    1.6537997E+05    2.5899830E-10    1.6977522E-10    1.6537997E+05    9.2676481E-10    1.6648836E+05
   -2.30   600.000    1.485E-02    1.4233821E+05    2.2034959E-10    1.4338848E-10    1.4233821E+05    8.0879047E-10    1.4332235E+05
   -2.29   600.000    1.267E-02    1.2188992E+05    1.8679612E-10    1.2076046E-10    1.2188992E+05    7.0192329E-10    1.2275669E+05
   -2.28   600.000    1.077E-02    1.0388854E+05    1.5789403E-10    1.0151200E-10    1.0388854E+05    6.0602009E-10    1.0464608E+05
   -2.27   600.000    9.113E-03    8.8162471E+04    1.3318561E-10    8.5265142E-11    8.8162471E+04    5.2078691E-10    8.8819776E+04
   -2.26   600.000    7.685E-03    7.4522880E+04    1.1221776E-10    7.1657917E-11    7.4522880E+04    4.4577909E-10    7.5089423E+04
   -2.25   600.000    6.459E-03    6.2771695E+04    9.4556878E-11    6.0355010E-11    6.2771695E+04    3.8042129E-10    6.3257050E+04
   -2.24   600.000    5.413E-03    5.2709047E+04    7.9799856E-11    5.1054652E-11    5.2709047E+04    3.2404077E-10    5.3122580E+04
   -2.23   600.000    4.525E-03    4.4139637E+04    6.7581474E-11    4.3492295E-11    4.4139637E+04    2.7590695E-10    4.4490270E+04
   -2.22   600.000    3.774E-03    3.6877747E+04    5.7578717E-11    3.7441901E-11    3.6877747E+04    2.3527111E-10    3.7173777E+04
   -2.21   600.000    3.141E-03    3.0750774E+04    4.9512690E-11    3.2715627E-11    3.0750774E+04    2.0140211E-10    3.0999776E+04
   -2.20   600.000    2.610E-03    2.5601418E+04    4.3148849E-11    2.9162582E-11    2.5601418E+04    1.7361585E-10    2.5810190E+04
   -2.19   600.000    2.164E-03    2.1288689E+04    3.8296186E-11    2.6667226E-11    2.1288689E+04    1.5129786E-10    2.1463248E+04
   -2.18   600.000    1.792E-03    1.7688001E+04    3.4805923E-11    2.5147833E-11    1.7688001E+04    1.3391952E-10    1.7833611E+04
   -2.17   600.000    1.482E-03    1.4690592E+04    3.2570184E-11    2.4555329E-11    1.4690592E+04    1.2104929E-10    1.4811812E+04
   -2.16   600.000    1.224E-03    1.2202509E+04    3.1520972E-11    2.4872725E-11    1.2202509E+04    1.1236033E-10    1.2303255E+04
   -2.15   600.000    1.008E-03    1.0143335E+04    3.1629770E-11    2.6115336E-11    1.0143335E+04    1.0763615E-10    1.0226946E+04
   -2.14   600.000    8.287E-04    8.4448038E+03    3.2907958E-11    2.8331907E-11    8.4448038E+03    1.0677570E-10    8.5141122E+03
   -2.13   600.000    6.791E-04    7.0494175E+03    3.5408261E-11    3.1606784E-11    7.0494175E+03    1.0979909E-10    7.1068131E+03
   -2.12   600.000    5.542E-04    5.9091190E+03    3.9227399E-11    3.6063276E-11    5.9091190E+03    1.1685515E-10    5.9566102E+03
   -2.11   600.000    4.494E-04    4.9840790E+03    4.4510132E-11    4.1868352E-11    4.9840790E+03    1.2823170E-10    5.0233479E+03
   -2.10   600.000    3.611E-04    4.2416130E+03    5.1454892E-11    4.9238876E-11    4.2416130E+03    1.4436943E-10    4.2740647E+03
   -2.09   600.000    2.860E-04    3.6552411E+03    6.0321258E-11    5.8449605E-11    3.6552411E+03    1.6588036E-10    3.6820463E+03
   -2.08   600.000    2.215E-04    3.2038912E+03    7.1439537E-11    6.9843223E-11    3.2038912E+03    1.9357161E-10    3.2260238E+03
   -2.07   600.000    1.652E-04    2.8712433E+03    8.5222799E-11    8.3842770E-11    2.8712433E+03    2.2847566E-10    2.8895118E+03
   -2.06   600.000    1.150E-04    2.6452061E+03    1.0218176E-10    1.0096684E-10    2.6452061E+03    2.7188807E-10    2.6602812E+03
   -2.05   600.000    6.907E-05    2.5175211E+03    1.2294297E-10    1.2184802E-10    2.5175211E+03    3.2541396E-10    2.5299582E+03
   -2.04   600.000    2.573E-05    2.4834849E+03    1.4827090E-10    1.4725520E-10    2.4834849E+03    3.9102467E-10    2.4937437E+03
   -2.03   600.000   -1.663E-05    2.5417862E+03    1.7909439E-10    1.7812019E-10    2.5417862E+03    4.7112623E-10    2.5502470E+03
   -2.02   600.000   -5.957E-05    2.6944517E+03    2.1653844E-10    2.1556954E-10    2.6944517E+03    5.6864146E-10    2.7014287E+03
   -2.01   600.000   -1.047E-04    2.9468987E+03    2.6196167E-10    2.6096216E-10    2.9468987E+03    6.8710739E-10    2.9526515E+03
   -2.00   600.000   -1.536E-04    3.3080933E+03    3.1700065E-10    3.1593361E-10    3.3080933E+03    8.3079030E-10    3.3128364E+03
   -1.99   600.000   -2.081E-04    3.7908146E+03    3.8362144E-10    3.8244763E-10    3.7908146E+03    1.0048200E-09    3.7947249E+03
   -1.98   600.000   -2.701E-04    4.4120234E+03    4.6417923E-10    4.6285571E-10    4.4120234E+03    1.2153446E-09    4.4152469E+03
   -1.97   600.000   -3.418E-04    5.1933366E+03    5.6148627E-10    5.5996498E-10    5.1933366E+03    1.4697080E-09    5.1959938E+03
   -1.96   600.000   -4.258E-04    6.1616039E+03    6.7888813E-10    6.7711422E-10    6.1616039E+03    1.7766473E-09    6.1637943E+03
   -1.95   600.000   -5.250E-04    7.3495793E+03    8.2034748E-10    8.1825755E-10    7.3495793E+03    2.1465108E-09    7.3513847E+03
   -1.94   600.000   -6.425E-04    8.7966736E+03    9.9053353E-10    9.8805357E-10    8.7966736E+03    2.5914896E-09    8.7981617E+03
   -1.93   600.000   -7.824E-04    1.0549764E+04    1.1949139E-09    1.1919570E-09    1.0549764E+04    3.1258553E-09    1.0550990E+04
   -1.92   600.000   -9.490E-04    1.2664021E+04    1.4398438E-09    1.4363074E-09    1.2664021E+04    3.7661877E-09    1.2665032E+04
   -1.91   600.000   -1.148E-03    1.5203700E+04    1.7326439E-09    1.7284067E-09    1.5203700E+04    4.5315733E-09    1.5204533E+04
   -1.90   600.000   -1.384E-03    1.8242814E+04    2.0816565E-09    2.0765749E-09    1.8242814E+04    5.4437430E-09    1.8243501E+04
   -1.89   600.000   -1.664E-03    2.1865593E+04    2.4962650E-09    2.4901683E-09    2.1865593E+04    6.5271091E-09    2.1866160E+04
   -1.88   600.000   -1.997E-03    2.6166613E+04    2.9868576E-09    2.9795430E-09    2.6166613E+04    7.8086514E-09    2.6167079E+04
   -1.87   600.000   -2.389E-03    3.1250447E+04    3.5647135E-09    3.5559396E-09    3.1250447E+04    9.3175919E-09    3.1250832E+04
   -1.86   600.000   -2.850E-03    3.7230736E+04    4.2417875E-09    4.2312667E-09    3.7230736E+04    1.1084791E-08    3.7231053E+04
   -1.85   600.000   -3.390E-03    4.4228552E+04    5.0303705E-09    5.0177601E-09    4.4228552E+04    1.3141801E-08    4.4228814E+04
   -1.84   600.000   -4.018E-03    5.2370022E+04    5.9426068E-09    5.9274985E-09    5.2370022E+04    1.5519517E-08    5.2370237E+04
   -1.83   600.000   -4.744E-03    6.1783241E+04    6.9898612E-09    6.9717711E-09    6.1783241E+04    1.8246407E-08    6.1783418E+04
   -1.82   600.000   -5.579E-03    7.2594631E+04    8.1819505E-09    8.1603086E-09    7.2594631E+04    2.1346341E-08    7.2594777E+04
   -1.81   600.000   -6.532E-03    8.4924969E+04    9.5262777E-09    9.5004198E-09    8.4924969E+04    2.4836124E-08    8.4925089E+04
   -1.80   600.000   -7.612E-03    9.8885439E+04    1.1026946E-08    1.0996109E-08    9.8885439E+04    2.8722941E-08    9.8885538E+04
   -1.79   600.000   -8.827E-03    1.1457405E+05    1.2683972E-08    1.2647291E-08    1.1457405E+05    3.3002045E-08    1.1457413E+05
   -1.78   600.000   -1.018E-02    1.3207273E+05    1.4492740E-08    1.4449250E-08    1.3207273E+05    3.7655143E-08    1.3207280E+05
   -1.77   600.000   -1.169E-02    1.5144540E+05    1.6443867E-08    1.6392508E-08    1.5144540E+05    4.2649990E-08    1.5144546E+05
   -1.76   600.000   -1.334E-02    1.7273696E+05    1.8523626E-08    1.8463238E-08    1.7273696E+05    4.7941682E-08    1.7273700E+05
   -1.75   600.000   -1.515E-02    1.9597331E+05    2.0714995E-08    2.0644311E-08    1.9597331E+05    5.3475944E-08    1.9597335E+05
   -1.74   600.000   -1.711E-02    2.2116223E+05    2.2999277E-08    2.2916908E-08    2.2116223E+05    5.9194322E-08    2.2116227E+05
   -1.73   600.000   -1.923E-02    2.4829487E+05    2.5358091E-08    2.5262508E-08    2.4829487E+05    6.5040630E-08    2.4829489E+05
   -1.72   600.000   -2.150E-02    2.7734771E+05    2.7775332E-08    2.7664846E-08    2.7734771E+05    7.0967436E-08    2.7734773E+05
   -1.71   600.000   -2.392E-02    3.0828499E+05    3.0238601E-08    3.0111360E-08    3.0828499E+05    7.6940968E-08    3.0828501E+05
   -1.70   600.000   -2.649E-02    3.4106120E+05    3.2739643E-08    3.2593641E-08    3.4106120E+05    8.2942850E-08    3.4106122E+05
   -1.69   600.000   -2.921E-02    3.7562369E+05    3.5273495E-08    3.5106608E-08    3.7562369E+05    8.8967704E-08    3.7562370E+05
   -1.68   600.000   -3.206E-02    4.1191510E+05    3.7836431E-08    3.7646477E-08    4.1191510E+05    9.5016783E-08    4.1191510E+05
   -1.67   600.000   -3.506E-02    4.4987537E+05    4.0423202E-08    4.0208017E-08    4.4987537E+05    1.0108914E-07    4.4987538E+05
   -1.66   600.000   -3.819E-02    4.8944334E+05    4.3024407E-08    4.2781946E-08    4.8944334E+05    1.0717288E-07    4.8944335E+05
   -1.65   600.000   -4.146E-02    5.3055766E+05    4.5624930E-08    4.5353384E-08    5.3055766E+05    1.1323936E-07    5.3055766E+05
   -1.64   600.000   -4.485E-02    5.7315740E+05    4.8204173E-08    4.7902096E-08    5.7315740E+05    1.1924259E-07    5.7315741E+05
   -1.63   600.000   -4.837E-02    6.1718249E+05    5.0738276E-08    5.0404729E-08    6.1718249E+05    1.2512448E-07    6.1718249E+05
   -1.62   600.000   -5.201E-02    6.6257415E+05    5.3203949E-08    5.2838642E-08    6.6257415E+05    1.3082507E-07    6.6257415E+05
   -1.61   600.000   -5.577E-02    7.0927572E+05    5.5582971E-08    5.5186396E-08    7.0927572E+05    1.3629517E-07    7.0927572E+05
   -1.60   600.000   -5.964E-02    7.5723381E+05    5.7866198E-08    5.7439740E-08    7.5723381E+05    1.4150817E-07    7.5723381E+05
   -1.59   600.000   -6.363E-02    8.0639970E+05    6.0056111E-08    5.9602109E-08    8.0639970E+05    1.4646831E-07    8.0639970E+05
   -1.58   600.000   -6.773E-02    8.5673063E+05    6.2167332E-08    6.1689077E-08    8.5673063E+05    1.5121368E-07    8.5673063E+05
   -1.57   600.000   -7.194E-02    9.0819078E+05    6.4225171E-08    6.3726817E-08    9.0819078E+05    1.5581392E-07    9.0819078E+05
   -1.56   600.000   -7.626E-02    9.6075137E+05    6.6262701E-08    6.5749099E-08    9.6075137E+05    1.6036373E-07    9.6075138E+05
   -1.55   600.000   -8.068E-02    1.0143897E+06    6.8317130E-08    6.7793583E-08    1.0143897E+06    1.6497403E-07    1.0143897E+06
   -1.54   600.000   -8.520E-02    1.0690871E+06    7.0426153E-08    6.9898139E-08    1.0690871E+06    1.6976238E-07    1.0690871E+06
   -1.53   600.000   -8.983E-02    1.1248257E+06    7.2624767E-08    7.2097670E-08    1.1248257E+06    1.7484377E-07    1.1248257E+06
   -1.52   600.000   -9.455E-02    1.1815857E+06    7.4942708E-08    7.4421609E-08    1.1815857E+06    1.8032214E-07    1.1815857E+06
   -1.51   600.000   -9.937E-02    1.2393419E+06    7.7402453E-08    7.6892018E-08    1.2393419E+06    1.8628231E-07    1.2393419E+06
   -1.50   600.000   -1.043E-01    1.2980630E+06    8.0017598E-08    7.9522084E-08    1.2980630E+06    1.9278235E-07    1.2980630E+06
   -1.49   600.000   -1.093E-01    1.3577122E+06    8.2791448E-08    8.2314812E-08    1.3577122E+06    1.9984619E-07    1.3577122E+06
   -1.48   600.000   -1.144E-01    1.4182498E+06    8.5715778E-08    8.5261843E-08    1.4182498E+06    2.0745721E-07    1.4182498E+06
   -1.47   600.000   -1.196E-01    1.4796384E+06    8.8769861E-08    8.8342498E-08    1.4796384E+06    2.1555386E-07    1.4796384E+06
   -1.46   600.000   -1.249E-01    1.5418466E+06    9.1920118E-08    9.1523381E-08    1.5418466E+06    2.2402873E-07    1.5418466E+06
   -1.45   600.000   -1.303E-01    1.6048526E+06    9.5120827E-08    9.4759018E-08    1.6048526E+06    2.3273241E-07    1.6048526E+06
   -1.44   600.000   -1.358E-01    1.6686442E+06    9.8316339E-08    9.7993997E-08    1.6686442E+06    2.4148305E-07    1.6686442E+06
   -1.43   600.000   -1.414E-01    1.7332157E+06    1.0144496E-07    1.0116679E-07    1.7332157E+06    2.5008114E-07    1.7332157E+06
   -1.42   600.000   -1.470E-01    1.7985626E+06    1.0444422E-07    1.0421503E-07    1.7985626E+06    2.5832789E-07    1.7985626E+06
   -1.41   600.000   -1.528E-01    1.8646757E+06    1.0725679E-07    1.0708135E-07    1.8646757E+06    2.6604421E-07    1.8646757E+06
   -1.40   600.000   -1.586E-01    1.9315364E+06    1.0983586E-07    1.0971890E-07    1.9315364E+06    2.7308685E-07    1.9315364E+06
   -1.39   600.000   -1.645E-01    1.9991155E+06    1.1214896E-07    1.1209515E-07    1.9991155E+06    2.7935864E-07    1.9991155E+06
   -1.38   600.000   -1.705E-01    2.0673749E+06    1.1417956E-07    1.1419350E-07    2.0673749E+06    2.8481136E-07    2.0673749E+06
   -1.37   600.000   -1.766E-01    2.1362713E+06    1.1592628E-07    1.1601258E-07    2.1362713E+06    2.8944182E-07    2.1362713E+06
   -1.36   600.000   -1.828E-01    2.2057606E+06    1.1740046E-07    1.1756374E-07    2.2057606E+06    2.9328330E-07    2.2057606E+06
   -1.35   600.000   -1.891E-01    2.2758014E+06    1.1862289E-07    1.1886774E-07    2.2758014E+06    2.9639576E-07    2.2758014E+06
   -1.34   600.000   -1.954E-01    2.3463564E+06    1.1962073E-07    1.1995164E-07    2.3463564E+06    2.9885775E-07    2.3463564E+06
   -1.33   600.000   -2.019E-01    2.4173931E+06    1.2042525E-07    1.2084646E-07    2.4173931E+06    3.0076138E-07    2.4173931E+06
   -1.32   600.000   -2.084E-01    2.4888826E+06    1.2107028E-07    1.2158560E-07    2.4888826E+06    3.0221015E-07    2.4888826E+06
   -1.31   600.000   -2.150E-01    2.5608000E+06    1.2159088E-07    1.2220360E-07    2.5608000E+06    3.0331723E-07    2.5608000E+06
   -1.30   600.000   -2.217E-01    2.6331245E+06    1.2202186E-07    1.2273467E-07    2.6331245E+06    3.0420193E-07    2.6331245E+06
   -1.29   600.000   -2.284E-01    2.7058405E+06    1.2239548E-07    1.2321049E-07    2.7058405E+06    3.0498269E-07    2.7058405E+06
   -1.28   600.000   -2.353E-01    2.7789387E+06    1.2273897E-07    1.2365777E-07    2.7789387E+06    3.0576702E-07    2.7789387E+06
   -1.27   600.000   -2.422E-01    2.8524145E+06    1.2307215E-07    1.2409592E-07    2.8524145E+06    3.0664013E-07    2.8524145E+06
   -1.26   600.000   -2.493E-01    2.9262668E+06    1.2340617E-07    1.2453567E-07    2.9262668E+06    3.0765502E-07    2.9262668E+06
   -1.25   600.000   -2.564E-01    3.0004952E+06    1.2374341E-07    1.2497891E-07    3.0004952E+06    3.0882606E-07    3.0004952E+06
   -1.24   600.000   -2.635E-01    3.0750976E+06    1.2407871E-07    1.2541976E-07    3.0750976E+06    3.1012736E-07    3.0750976E+06
   -1.23   600.000   -2.708E-01    3.1500698E+06    1.2440120E-07    1.2584643E-07    3.1500698E+06    3.1149578E-07    3.1500698E+06
   -1.22   600.000   -2.782E-01    3.2254052E+06    1.2469652E-07    1.2624336E-07    3.2254052E+06    3.1283805E-07    3.2254052E+06
   -1.21   600.000   -2.856E-01    3.3010959E+06    1.2494898E-07    1.2659356E-07    3.3010959E+06    3.1404123E-07    3.3010959E+06
   -1.20   600.000   -2.931E-01    3.3771325E+06    1.2514376E-07    1.2688094E-07    3.3771325E+06    3.1498579E-07    3.3771325E+06
   -1.19   600.000   -3.007E-01    3.4535041E+06    1.2526950E-07    1.2709306E-07    3.4535041E+06    3.1556059E-07    3.4535041E+06
   -1.18   600.000   -3.084E-01    3.5301974E+06    1.2532116E-07    1.2722417E-07    3.5301974E+06    3.1567886E-07    3.5301974E+06
   -1.17   600.000   -3.162E-01    3.6071972E+06    1.2530331E-07    1.2727849E-07    3.6071972E+06    3.1529391E-07    3.6071972E+06
   -1.16   600.000   -3.241E-01    3.6844881E+06    1.2523309E-07    1.2727309E-07    3.6844881E+06    3.1441241E-07    3.6844881E+06
   -1.15   600.000   -3.320E-01    3.7620581E+06    1.2514200E-07    1.2723960E-07    3.7620581E+06    3.1310277E-07    3.7620581E+06
   -1.14   600.000   -3.400E-01    3.8399024E+06    1.2507568E-07    1.2722373E-07    3.8399024E+06    3.1149626E-07    3.8399024E+06
   -1.13   600.000   -3.481E-01    3.9180259E+06    1.2509100E-07    1.2728231E-07    3.9180259E+06    3.0977949E-07    3.9180259E+06
   -1.12   600.000   -3.563E-01    3.9964441E+06    1.2525087E-07    1.2747793E-07    3.9964441E+06    3.0817865E-07    3.9964441E+06
   -1.11   600.000   -3.646E-01    4.0751790E+06    1.2561740E-07    1.2787225E-07    4.0751790E+06    3.0693789E-07    4.0751791E+06
   -1.10   600.000   -3.730E-01    4.1542544E+06    1.2624510E-07    1.2851930E-07    4.1542544E+06    3.0629569E-07    4.1542545E+06
   -1.09   600.000   -3.814E-01    4.2336884E+06    1.2717527E-07    1.2946008E-07    4.2336884E+06    3.0646291E-07    4.2336884E+06
   -1.08   600.000   -3.900E-01    4.3134875E+06    1.2843245E-07    1.3071923E-07    4.3134875E+06    3.0760560E-07    4.3134875E+06
   -1.07   600.000   -3.986E-01    4.3936431E+06    1.3002308E-07    1.3230390E-07    4.3936431E+06    3.0983351E-07    4.3936431E+06
   -1.06   600.000   -4.073E-01    4.4741304E+06    1.3193577E-07    1.3420408E-07    4.4741304E+06    3.1319415E-07    4.4741304E+06
   -1.05   600.000   -4.161E-01    4.5549096E+06    1.3414254E-07    1.3639373E-07    4.5549096E+06    3.1767107E-07    4.5549096E+06
   -1.04   600.000   -4.250E-01    4.6359291E+06    1.3660036E-07    1.3883215E-07    4.6359291E+06    3.2318541E-07    4.6359291E+06
   -1.03   600.000   -4.340E-01    4.7171281E+06    1.3925283E-07    1.4146525E-07    4.7171281E+06    3.2960011E-07    4.7171282E+06
   -1.02   600.000   -4.430E-01    4.7984388E+06    1.4203225E-07    1.4422733E-07    4.7984388E+06    3.3672716E-07    4.7984388E+06
   -1.01   600.000   -4.522E-01    4.8797867E+06    1.4486266E-07    1.4704371E-07    4.8797867E+06    3.4433896E-07    4.8797867E+06
   -1.00   600.000   -4.615E-01    4.9610923E+06    1.4766451E-07    1.4983523E-07    4.9610923E+06    3.5218450E-07    4.9610924E+06
   -0.99   600.000   -4.708E-01    5.0422754E+06    1.5036119E-07    1.5252465E-07    5.0422754E+06    3.6001091E-07    5.0422755E+06
   -0.98   600.000   -4.803E-01    5.1232631E+06    1.5288714E-07    1.5504486E-07    5.1232631E+06    3.6758867E-07    5.1232632E+06
   -0.97   600.000   -4.898E-01    5.2040028E+06    1.5519631E-07    1.5734751E-07    5.2040028E+06    3.7473780E-07    5.2040030E+06
   -0.96   600.000   -4.995E-01    5.2844748E+06    1.5726918E-07    1.5941041E-07    5.2844748E+06    3.8135025E-07    5.2844750E+06
   -0.95   600.000   -5.092E-01    5.3647008E+06    1.5911654E-07    1.6124167E-07    5.3647008E+06    3.8740369E-07    5.3647011E+06
   -0.94   600.000   -5.190E-01    5.4447431E+06    1.6077856E-07    1.6287914E-07    5.4447431E+06    3.9296292E-07    5.4447434E+06
   -0.93   600.000   -5.290E-01    5.5246920E+06    1.6231870E-07    1.6438465E-07    5.5246920E+06    3.9816729E-07    5.5246924E+06
   -0.92   600.000   -5.390E-01    5.6046448E+06    1.6381342E-07    1.6583393E-07    5.6046448E+06    4.0320573E-07    5.6046452E+06
   -0.91   600.000   -5.492E-01    5.6846812E+06    1.6533959E-07    1.6730399E-07    5.6846812E+06    4.0828393E-07    5.6846817E+06
   -0.90   600.000   -5.595E-01    5.7648452E+06    1.6696201E-07    1.6886067E-07    5.7648452E+06    4.1358981E-07    5.7648458E+06
   -0.89   600.000   -5.698E-01    5.8451360E+06    1.6872370E-07    1.7054861E-07    5.8451360E+06    4.1926379E-07    5.8451367E+06
   -0.88   600.000   -5.803E-01    5.9255131E+06    1.7064015E-07    1.7238535E-07    5.9255131E+06    4.2537861E-07    5.9255140E+06
   -0.87   600.000   -5.909E-01    6.0059112E+06    1.7269841E-07    1.7436014E-07    6.0059112E+06    4.3193106E-07    6.0059122E+06
   -0.86   600.000   -6.017E-01    6.0862583E+06    1.7486004E-07    1.7643675E-07    6.0862583E+06    4.3884492E-07    6.0862596E+06
   -0.85   600.000   -6.125E-01    6.1664925E+06    1.7706676E-07    1.7855901E-07    6.1664925E+06    4.4598251E-07    6.1664941E+06
   -0.84   600.000   -6.235E-01    6.2465696E+06    1.7924710E-07    1.8065755E-07    6.2465696E+06    4.5316159E-07    6.2465715E+06
   -0.83   600.000   -6.346E-01    6.3264619E+06    1.8132320E-07    1.8265658E-07    6.3264619E+06    4.6017435E-07    6.3264642E+06
   -0.82   600.000   -6.458E-01    6.4061477E+06    1.8321674E-07    1.8448008E-07    6.4061477E+06    4.6680670E-07    6.4061506E+06
   -0.81   600.000   -6.572E-01    6.4855958E+06    1.8485426E-07    1.8605715E-07    6.4855958E+06    4.7285600E-07    6.4855992E+06
   -0.80   600.000   -6.687E-01    6.5647472E+06    1.8617159E-07    1.8732645E-07    6.5647472E+06    4.7814620E-07    6.5647514E+06
   -0.79   600.000   -6.804E-01    6.6435016E+06    1.8711738E-07    1.8823975E-07    6.6435016E+06    4.8253947E-07    6.6435066E+06
   -0.78   600.000   -6.922E-01    6.7217093E+06    1.8765595E-07    1.8876446E-07    6.7217093E+06    4.8594333E-07    6.7217154E+06
   -0.77   600.000   -7.042E-01    6.7991745E+06    1.8776899E-07    1.8888513E-07    6.7991745E+06    4.8831356E-07    6.7991819E+06
   -0.76   600.000   -7.163E-01    6.8756689E+06    1.8745651E-07    1.8860393E-07    6.8756689E+06    4.8965330E-07    6.8756779E+06
   -0.75   600.000   -7.286E-01    6.9509548E+06    1.8673676E-07    1.8794027E-07    6.9509548E+06    4.9000971E-07    6.9509657E+06
   -0.74   600.000   -7.410E-01    7.0248138E+06    1.8564533E-07    1.8692945E-07    7.0248138E+06    4.8946880E-07    7.0248271E+06
   -0.73   600.000   -7.536E-01    7.0970723E+06    1.8423306E-07    1.8562041E-07    7.0970723E+06    4.8814875E-07    7.0970884E+06
   -0.72   600.000   -7.664E-01    7.1676180E+06    1.8256257E-07    1.8407215E-07    7.1676180E+06    4.8619101E-07    7.1676375E+06
   -0.71   600.000   -7.794E-01    7.2364025E+06    1.8070318E-07    1.8234878E-07    7.2364025E+06    4.8374834E-07    7.2364262E+06
   -0.70   600.000   -7.925E-01    7.3034273E+06    1.7872439E-07    1.8051340E-07    7.3034273E+06    4.8096994E-07    7.3034560E+06
   -0.69   600.000   -8.058E-01    7.3687184E+06    1.7668862E-07    1.7862136E-07    7.3687184E+06    4.7798495E-07    7.3687533E+06
   -0.68   600.000   -8.192E-01    7.4322957E+06    1.7464455E-07    1.7671427E-07    7.4322957E+06    4.7488718E-07    7.4323379E+06
   -0.67   600.000   -8.328E-01    7.4941447E+06    1.7262212E-07    1.7481579E-07    7.4941447E+06    4.7172466E-07    7.4941960E+06
   -0.66   600.000   -8.466E-01    7.5542012E+06    1.7063073E-07    1.7293047E-07    7.5542012E+06    4.6849700E-07    7.5542634E+06
   -0.65   600.000   -8.605E-01    7.6123509E+06    1.6866081E-07    1.7104590E-07    7.6123509E+06    4.6516199E-07    7.6124263E+06
   -0.64   600.000   -8.746E-01    7.6684450E+06    1.6668882E-07    1.6913799E-07    7.6684450E+06    4.6165077E-07    7.6685365E+06
   -0.63   600.000   -8.887E-01    7.7223274E+06    1.6468454E-07    1.6717828E-07    7.7223274E+06    4.5788860E-07    7.7224383E+06
   -0.62   600.000   -9.030E-01    7.7738635E+06    1.6261927E-07    1.6514173E-07    7.7738635E+06    4.5381675E-07    7.7739980E+06
   -0.61   600.000   -9.174E-01    7.8229637E+06    1.6047321E-07    1.6301349E-07    7.8229637E+06    4.4941068E-07    7.8231267E+06
   -0.60   600.000   -9.319E-01    7.8695935E+06    1.5824053E-07    1.6079308E-07    7.8695935E+06    4.4469011E-07    7.8697910E+06
   -0.59   600.000   -9.464E-01    7.9137666E+06    1.5593119E-07    1.5849531E-07    7.9137666E+06    4.3971909E-07    7.9140059E+06
   -0.58   600.000   -9.611E-01    7.9555228E+06    1.5356931E-07    1.5614782E-07    7.9555228E+06    4.3459607E-07    7.9558128E+06
   -0.57   600.000   -9.758E-01    7.9948934E+06    1.5118866E-07    1.5378607E-07    7.9948934E+06    4.2943692E-07    7.9952445E+06
   -0.56   600.000   -9.905E-01    8.0318635E+06    1.4882643E-07    1.5144700E-07    8.0318635E+06    4.2435491E-07    8.0322885E+06
   -0.55   600.000   -1.005E+00    8.0663410E+06    1.4651678E-07    1.4916278E-07    8.0663410E+06    4.1944229E-07    8.0668551E+06
   -0.54   600.000   -1.020E+00    8.0981423E+06    1.4428533E-07    1.4695592E-07    8.0981423E+06    4.1475684E-07    8.0987639E+06
   -0.53   600.000   -1.035E+00    8.1270014E+06    1.4214564E-07    1.4483652E-07    8.1270014E+06    4.1031574E-07    8.1277523E+06
   -0.52   600.000   -1.050E+00    8.1526024E+06    1.4009812E-07    1.4280193E-07    8.1526024E+06    4.0609725E-07    8.1535087E+06
   -0.51   600.000   -1.065E+00    8.1746287E+06    1.3813135E-07    1.4083871E-07    8.1746287E+06    4.0204953E-07    8.1757214E+06
   -0.50   600.000   -1.080E+00    8.1928180E+06    1.3622556E-07    1.3892636E-07    8.1928180E+06    3.9810470E-07    8.1941337E+06
   -0.49   600.000   -1.094E+00    8.2070104E+06    1.3435747E-07    1.3704225E-07    8.2070104E+06    3.9419567E-07    8.2085920E+06
   -0.48   600.000   -1.109E+00    8.2171791E+06    1.3250579E-07    1.3516680E-07    8.2171791E+06    3.9027267E-07    8.2190767E+06
   -0.47   600.000   -1.124E+00    8.2234387E+06    1.3065634E-07    1.3328821E-07    8.2234387E+06    3.8631657E-07    8.2257103E+06
   -0.46   600.000   -1.139E+00    8.2260297E+06    1.2880597E-07    1.3140595E-07    8.2260297E+06    3.8234660E-07    8.2287417E+06
   -0.45   600.000   -1.154E+00    8.2252814E+06    1.2696469E-07    1.2953244E-07    8.2252814E+06    3.7842135E-07    8.2285088E+06
   -0.44   600.000   -1.168E+00    8.2215587E+06    1.2515559E-07    1.2769272E-07    8.2215587E+06    3.7463304E-07    8.2253849E+06
   -0.43   600.000   -1.183E+00    8.2152021E+06    1.2341262E-07    1.2592208E-07    8.2152021E+06    3.7109650E-07    8.2197183E+06
   -0.42   600.000   -1.197E+00    8.2064726E+06    1.2177667E-07    1.2426219E-07    8.2064726E+06    3.6793507E-07    8.2117758E+06
   -0.41   600.000   -1.212E+00    8.1955152E+06    1.2029075E-07    1.2275633E-07    8.1955152E+06    3.6526597E-07    8.2017055E+06
   -0.40   600.000   -1.226E+00    8.1823528E+06    1.1899501E-07    1.2144462E-07    8.1823528E+06    3.6318777E-07    8.1895295E+06
   -0.39   600.000   -1.240E+00    8.1669156E+06    1.1792272E-07    1.2036009E-07    8.1669156E+06    3.6177137E-07    8.1751718E+06
   -0.38   600.000   -1.254E+00    8.1491002E+06    1.1709748E-07    1.1952615E-07    8.1491002E+06    3.6105577E-07    8.1585163E+06
   -0.37   600.000   -1.268E+00    8.1288422E+06    1.1653219E-07    1.1895558E-07    8.1288422E+06    3.6104806E-07    8.1394788E+06
   -0.36   600.000   -1.282E+00    8.1061826E+06    1.1622926E-07    1.1865082E-07    8.1061826E+06    3.6172671E-07    8.1180732E+06
   -0.35   600.000   -1.296E+00    8.0813077E+06    1.1618168E-07    1.1860502E-07    8.0813077E+06    3.6304655E-07    8.0944522E+06
   -0.34   600.000   -1.309E+00    8.0545524E+06    1.1637415E-07    1.1880309E-07    8.0545524E+06    3.6494348E-07    8.0689128E+06
   -0.33   600.000   -1.323E+00    8.0263685E+06    1.1678404E-07    1.1922264E-07    8.0263685E+06    3.6733817E-07    8.0418671E+06
   -0.32   600.000   -1.336E+00    7.9972680E+06    1.1738193E-07    1.1983446E-07    7.9972680E+06    3.7013848E-07    8.0137895E+06
   -0.31   600.000   -1.349E+00    7.9677571E+06    1.1813227E-07    1.2060321E-07    7.9677571E+06    3.7324144E-07    7.9851536E+06
   -0.30   600.000   -1.363E+00    7.9382737E+06    1.1899454E-07    1.2148861E-07    7.9382737E+06    3.7653609E-07    7.9563735E+06
   -0.29   600.000   -1.376E+00    7.9091387E+06    1.1992521E-07    1.2244750E-07    7.9091387E+06    3.7990750E-07    7.9277561E+06
   -0.28   600.000   -1.389E+00    7.8805236E+06    1.2088032E-07    1.2343647E-07    7.8805236E+06    3.8324181E-07    7.8994698E+06
   -0.27   600.000   -1.402E+00    7.8524380E+06    1.2181813E-07    1.2441441E-07    7.8524380E+06    3.8643058E-07    7.8715306E+06
   -0.26   600.000   -1.415E+00    7.8247370E+06    1.2270113E-07    1.2534450E-07    7.8247370E+06    3.8937349E-07    7.8438086E+06
   -0.25   600.000   -1.428E+00    7.7971508E+06    1.2349700E-07    1.2619495E-07    7.7971508E+06    3.9197872E-07    7.8160545E+06
   -0.24   600.000   -1.441E+00    7.7693368E+06    1.2417861E-07    1.2693883E-07    7.7693368E+06    3.9416217E-07    7.7879495E+06
   -0.23   600.000   -1.454E+00    7.7409495E+06    1.2472344E-07    1.2755336E-07    7.7409495E+06    3.9584705E-07    7.7591729E+06
   -0.22   600.000   -1.467E+00    7.7117212E+06    1.2511284E-07    1.2801919E-07    7.7117212E+06    3.9696553E-07    7.7294816E+06
   -0.21   600.000   -1.480E+00    7.6815386E+06    1.2533167E-07    1.2832006E-07    7.6815386E+06    3.9746262E-07    7.6987843E+06
   -0.20   600.000   -1.493E+00    7.6504983E+06    1.2536814E-07    1.2844298E-07    7.6504983E+06    3.9730123E-07    7.6671969E+06
   -0.19   600.000   -1.507E+00    7.6189247E+06    1.2521377E-07    1.2837833E-07    7.6189247E+06    3.9646635E-07    7.6350597E+06
   -0.18   600.000   -1.520E+00    7.5873396E+06    1.2486306E-07    1.2811984E-07    7.5873396E+06    3.9496617E-07    7.6029072E+06
   -0.17   600.000   -1.533E+00    7.5563815E+06    1.2431259E-07    1.2766377E-07    7.5563815E+06    3.9282867E-07    7.5713877E+06
   -0.16   600.000   -1.547E+00    7.5266863E+06    1.2355957E-07    1.2700747E-07    7.5266863E+06    3.9009368E-07    7.5411439E+06
   -0.15   600.000   -1.561E+00    7.4987520E+06    1.2259991E-07    1.2614730E-07    7.4987520E+06    3.8680188E-07    7.5126784E+06
   -0.14   600.000   -1.575E+00    7.4728181E+06    1.2142658E-07    1.2507672E-07    7.4728181E+06    3.8298365E-07    7.4862334E+06
   -0.13   600.000   -1.589E+00    7.4487920E+06    1.2002897E-07    1.2378522E-07    7.4487920E+06    3.7865147E-07    7.4617173E+06
   -0.12   600.000   -1.604E+00    7.4262453E+06    1.1839395E-07    1.2225918E-07    7.4262453E+06    3.7379918E-07    7.4387018E+06
   -0.11   600.000   -1.618E+00    7.4044878E+06    1.1650928E-07    1.2048486E-07    7.4044878E+06    3.6840966E-07    7.4164958E+06
   -0.10   600.000   -1.634E+00    7.3827080E+06    1.1436867E-07    1.1845350E-07    7.3827080E+06    3.6247000E-07    7.3942867E+06
   -0.09   600.000   -1.649E+00    7.3601493E+06    1.1197770E-07    1.1616726E-07    7.3601493E+06    3.5599034E-07    7.3713169E+06
   -0.08   600.000   -1.665E+00    7.3362822E+06    1.0935859E-07    1.1364434E-07    7.3362822E+06    3.4902080E-07    7.3470556E+06
   -0.07   600.000   -1.681E+00    7.3109323E+06    1.0655269E-07    1.1092188E-07    7.3109323E+06    3.4166152E-07    7.3213278E+06
   -0.06   600.000   -1.697E+00    7.2843373E+06    1.0361970E-07    1.0805562E-07    7.2843373E+06    3.3406310E-07    7.2943697E+06
   -0.05   600.000   -1.714E+00    7.2571233E+06    1.0063409E-07    1.0511687E-07    7.2571233E+06    3.2641837E-07    7.2668062E+06
   -0.04   600.000   -1.731E+00    7.2302133E+06    9.7680160E-08    1.0218780E-07    7.2302133E+06    3.1894918E-07    7.2395588E+06
   -0.03   600.000   -1.748E+00    7.2046914E+06    9.4847154E-08    9.9356735E-08    7.2046914E+06    3.1189295E-07    7.2137095E+06
   -0.02   600.000   -1.766E+00    7.1816496E+06    9.2225803E-08    9.6714709E-08    7.1816496E+06    3.0549282E-07    7.1903490E+06
   -0.01   600.000   -1.784E+00    7.1620462E+06    8.9906809E-08    9.4353760E-08    7.1620462E+06    2.9999293E-07    7.1704340E+06
    0.00   600.000   -1.802E+00    7.1465933E+06    8.7980937E-08    9.2366786E-08    7.1465933E+06    2.9563806E-07    7.1546761E+06
    0.01   600.000   -1.820E+00    7.1356906E+06    8.6539980E-08    9.0848249E-08    7.1356906E+06    2.9267566E-07    7.1434748E+06
    0.02   600.000   -1.839E+00    7.1294146E+06    8.5677745E-08    8.9894932E-08    7.1294146E+06    2.9135810E-07    7.1369070E+06
    0.03   600.000   -1.858E+00    7.1275655E+06    8.5490455E-08    8.9606171E-08    7.1275655E+06    2.9194380E-07    7.1347736E+06
    0.04   600.000   -1.877E+00    7.1297689E+06    8.6076314E-08    9.0083298E-08    7.1297689E+06    2.9469671E-07    7.1367007E+06
    0.05   600.000   -1.896E+00    7.1356150E+06    8.7534232E-08    9.1428257E-08    7.1356150E+06    2.9988421E-07    7.1422798E+06
    0.06   600.000   -1.915E+00    7.1448139E+06    8.9961711E-08    9.3741397E-08    7.1448139E+06    3.0777309E-07    7.1512224E+06
    0.07   600.000   -1.935E+00    7.1573359E+06    9.3451758E-08    9.7118272E-08    7.1573359E+06    3.1862281E-07    7.1635004E+06
    0.08   600.000   -1.954E+00    7.1735083E+06    9.8088423E-08    1.0164509E-07    7.1735083E+06    3.3267421E-07    7.1794435E+06
    0.09   600.000   -1.974E+00    7.1940494E+06    1.0394046E-07    1.0739229E-07    7.1940494E+06    3.5013185E-07    7.1997723E+06
    0.10   600.000   -1.993E+00    7.2200285E+06    1.1105273E-07    1.1440589E-07    7.2200285E+06    3.7113874E-07    7.2255579E+06
    0.11   600.000   -2.013E+00    7.2527556E+06    1.1943531E-07    1.2269667E-07    7.2527556E+06    3.9574364E-07    7.2581112E+06
    0.12   600.000   -2.033E+00    7.2936140E+06    1.2905111E-07    1.3222778E-07    7.2936140E+06    4.2386313E-07    7.2988150E+06
    0.13   600.000   -2.053E+00    7.3438569E+06    1.3980327E-07    1.4290233E-07    7.3438569E+06    4.5524306E-07    7.3489208E+06
    0.14   600.000   -2.073E+00    7.4043946E+06    1.5152479E-07    1.5455310E-07    7.4043946E+06    4.8942588E-07    7.4093361E+06
    0.15   600.000   -2.093E+00    7.4756000E+06    1.6397277E-07    1.6693713E-07    7.4756000E+06    5.2573191E-07    7.4804308E+06
    0.16   600.000   -2.114E+00    7.5571611E+06    1.7683043E-07    1.7973777E-07    7.5571611E+06    5.6326257E-07    7.5618903E+06
    0.17   600.000   -2.135E+00    7.6480034E+06    1.8971863E-07    1.9257642E-07    7.6480034E+06    6.0093188E-07    7.6526387E+06
    0.18   600.000   -2.156E+00    7.7462967E+06    2.0221793E-07    2.0503439E-07    7.7462967E+06    6.3752849E-07    7.7508453E+06
    0.19   600.000   -2.177E+00    7.8495433E+06    2.1389957E-07    2.1668369E-07    7.8495433E+06    6.7180436E-07    7.8540134E+06
    0.20   600.000   -2.199E+00    7.9547312E+06    2.2436178E-07    2.2712294E-07    7.9547312E+06    7.0257961E-07    7.9591326E+06
# T(K) = 700.00   Npoints =     441   V(cm^3) =  3.848E-22
   -4.20   700.000    9.665E+00    7.2935332E+05    4.1002048E-08    4.1124805E-08    7.2935332E+05    1.0174053E-07    7.2973087E+05
   -4.19   700.000    9.623E+00    7.6645371E+05    4.5187527E-08    4.5321278E-08    7.6645371E+05    1.1212760E-07    7.6683603E+05
   -4.18   700.000    9.576E+00    8.0290422E+05    4.9649063E-08    4.9794160E-08    8.0290422E+05    1.2318633E-07    8.0329025E+05
   -4.17   700.000    9.524E+00    8.3846071E+05    5.4357136E-08    5.4513755E-08    8.3846071E+05    1.3484438E-07    8.3884956E+05
   -4.16   700.000    9.468E+00    8.7289422E+05    5.9268921E-08    5.9437060E-08    8.7289422E+05    1.4699802E-07    8.7328517E+05
   -4.15   700.000    9.407E+00    9.0600016E+05    6.4327649E-08    6.4507119E-08    9.0600016E+05    1.5951080E-07    9.0639267E+05
   -4.14   700.000    9.341E+00    9.3760989E+05    6.9462789E-08    6.9653221E-08    9.3760989E+05    1.7221412E-07    9.3800354E+05
   -4.13   700.000    9.270E+00    9.6760418E+05    7.4591251E-08    7.4792111E-08    9.6760418E+05    1.8491028E-07    9.6799870E+05
   -4.12   700.000    9.193E+00    9.9592790E+05    7.9619726E-08    7.9830328E-08    9.9592790E+05    1.9737826E-07    9.9632305E+05
   -4.11   700.000    9.111E+00    1.0226042E+06    8.4448212E-08    8.4667742E-08    1.0226042E+06    2.0938217E-07    1.0229999E+06
   -4.10   700.000    9.024E+00    1.0477468E+06    8.8974693E-08    8.9202235E-08    1.0477468E+06    2.2068248E-07    1.0481427E+06
   -4.09   700.000    8.931E+00    1.0715669E+06    9.3100795E-08    9.3335357E-08    1.0715669E+06    2.3104931E-07    1.0719628E+06
   -4.08   700.000    8.834E+00    1.0943747E+06    9.6738108E-08    9.6978655E-08    1.0943747E+06    2.4027729E-07    1.0947702E+06
   -4.07   700.000    8.732E+00    1.1165713E+06    9.9814700E-08    1.0006018E-07    1.1165713E+06    2.4820050E-07    1.1169658E+06
   -4.06   700.000    8.626E+00    1.1386325E+06    1.0228117E-07    1.0253052E-07    1.1386325E+06    2.5470635E-07    1.1390251E+06
   -4.05   700.000    8.517E+00    1.1610829E+06    1.0411550E-07    1.0436769E-07    1.1610829E+06    2.5974644E-07    1.1614727E+06
   -4.04   700.000    8.404E+00    1.1844632E+06    1.0532593E-07    1.0557991E-07    1.1844632E+06    2.6334280E-07    1.1848486E+06
   -4.03   700.000    8.288E+00    1.2092921E+06    1.0595127E-07    1.0620603E-07    1.2092921E+06    2.6558825E-07    1.2096715E+06
   -4.02   700.000    8.169E+00    1.2360273E+06    1.0605838E-07    1.0631284E-07    1.2360273E+06    2.6664007E-07    1.2363987E+06
   -4.01   700.000    8.048E+00    1.2650287E+06    1.0573670E-07    1.0598973E-07    1.2650287E+06    2.6670723E-07    1.2653899E+06
   -4.00   700.000    7.926E+00    1.2965278E+06    1.0509064E-07    1.0534099E-07    1.2965278E+06    2.6603242E-07    1.2968768E+06
   -3.99   700.000    7.802E+00    1.3306065E+06    1.0423039E-07    1.0447664E-07    1.3306065E+06    2.6487067E-07    1.3309409E+06
   -3.98   700.000    7.677E+00    1.3671857E+06    1.0326251E-07    1.0350305E-07    1.3671857E+06    2.6346732E-07    1.3675036E+06
   -3.97   700.000    7.550E+00    1.4060275E+06    1.0228117E-07    1.0251413E-07    1.4060275E+06    2.6203762E-07    1.4063270E+06
   -3.96   700.000    7.423E+00    1.4467463E+06    1.0136125E-07    1.0158452E-07    1.4467463E+06    2.6075042E-07    1.4470261E+06
   -3.95   700.000    7.295E+00    1.4888315E+06    1.0055371E-07    1.0076491E-07    1.4888315E+06    2.5971730E-07    1.4890906E+06
   -3.94   700.000    7.166E+00    1.5316767E+06    9.9883740E-08    1.0008026E-07    1.5316767E+06    2.5898800E-07    1.5319146E+06
   -3.93   700.000    7.037E+00    1.5746142E+06    9.9351461E-08    9.9530527E-08    1.5746142E+06    2.5855197E-07    1.5748309E+06
   -3.92   700.000    6.908E+00    1.6169526E+06    9.8934830E-08    9.9093551E-08    1.6169526E+06    2.5834506E-07    1.6171484E+06
   -3.91   700.000    6.778E+00    1.6580140E+06    9.8594166E-08    9.8729635E-08    1.6580140E+06    2.5826027E-07    1.6581897E+06
   -3.90   700.000    6.648E+00    1.6971705E+06    9.8277561E-08    9.8386953E-08    1.6971705E+06    2.5816056E-07    1.6973270E+06
   -3.89   700.000    6.519E+00    1.7338752E+06    9.7926510E-08    9.8007183E-08    1.7338752E+06    2.5789252E-07    1.7340138E+06
   -3.88   700.000    6.390E+00    1.7676891E+06    9.7481184E-08    9.7530774E-08    1.7676891E+06    2.5729921E-07    1.7678111E+06
   -3.87   700.000    6.262E+00    1.7982992E+06    9.6884928E-08    9.6901429E-08    1.7982992E+06    2.5623140E-07    1.7984060E+06
   -3.86   700.000    6.135E+00    1.8255294E+06    9.6087770E-08    9.6069596E-08    1.8255294E+06    2.5455640E-07    1.8256226E+06
   -3.85   700.000    6.010E+00    1.8493421E+06    9.5048895E-08    9.4994917E-08    1.8493421E+06    2.5216459E-07    1.8494231E+06
   -3.84   700.000    5.888E+00    1.8698318E+06    9.3738173E-08    9.3647728E-08    1.8698318E+06    2.4897354E-07    1.8699019E+06
   -3.83   700.000    5.767E+00    1.8872113E+06    9.2136911E-08    9.2009787E-08    1.8872113E+06    2.4493037E-07    1.8872718E+06
   -3.82   700.000    5.650E+00    1.9017935E+06    9.0238025E-08    9.0074420E-08    1.9017935E+06    2.4001259E-07    1.9018456E+06
   -3.81   700.000    5.535E+00    1.9139701E+06    8.8045786E-08    8.7846249E-08    1.9139701E+06    2.3422788E-07    1.9140148E+06
   -3.80   700.000    5.425E+00    1.9241897E+06    8.5575251E-08    8.5340603E-08    1.9241897E+06    2.2761300E-07    1.9242281E+06
   -3.79   700.000    5.318E+00    1.9329380E+06    8.2851399E-08    8.2582651E-08    1.9329380E+06    2.2023190E-07    1.9329708E+06
   -3.78   700.000    5.216E+00    1.9407198E+06    7.9907980E-08    7.9606241E-08    1.9407198E+06    2.1217303E-07    1.9407478E+06
   -3.77   700.000    5.118E+00    1.9480439E+06    7.6786036E-08    7.6452431E-08    1.9480439E+06    2.0354566E-07    1.9480679E+06
   -3.76   700.000    5.024E+00    1.9554113E+06    7.3532096E-08    7.3167688E-08    1.9554113E+06    1.9447530E-07    1.9554317E+06
   -3.75   700.000    4.936E+00    1.9633037E+06    7.0196077E-08    6.9801816E-08    1.9633037E+06    1.8509826E-07    1.9633211E+06
   -3.74   700.000    4.852E+00    1.9721738E+06    6.6828983E-08    6.6405671E-08    1.9721738E+06    1.7555569E-07    1.9721886E+06
   -3.73   700.000    4.773E+00    1.9824355E+06    6.3480558E-08    6.3028841E-08    1.9824355E+06    1.6598735E-07    1.9824480E+06
   -3.72   700.000    4.698E+00    1.9944548E+06    6.0197058E-08    5.9717441E-08    1.9944548E+06    1.5652569E-07    1.9944655E+06
   -3.71   700.000    4.629E+00    2.0085413E+06    5.7019347E-08    5.6512233E-08    2.0085413E+06    1.4729075E-07    2.0085504E+06
   -3.70   700.000    4.564E+00    2.0249417E+06    5.3981472E-08    5.3447211E-08    2.0249417E+06    1.3838618E-07    2.0249494E+06
   -3.69   700.000    4.503E+00    2.0438356E+06    5.1109826E-08    5.0548776E-08    2.0438356E+06    1.2989679E-07    2.0438422E+06
   -3.68   700.000    4.446E+00    2.0653354E+06    4.8422948E-08    4.7835533E-08    2.0653354E+06    1.2188756E-07    2.0653409E+06
   -3.67   700.000    4.393E+00    2.0894883E+06    4.5931903E-08    4.5318662E-08    2.0894883E+06    1.1440410E-07    2.0894930E+06
   -3.66   700.000    4.344E+00    2.1162828E+06    4.3641137E-08    4.3002761E-08    2.1162828E+06    1.0747417E-07    2.1162868E+06
   -3.65   700.000    4.298E+00    2.1456562E+06    4.1549665E-08    4.0887010E-08    2.1456562E+06    1.0111001E-07    2.1456596E+06
   -3.64   700.000    4.255E+00    2.1775032E+06    3.9652413E-08    3.8966504E-08    2.1775032E+06    9.5311043E-08    2.1775061E+06
   -3.63   700.000    4.215E+00    2.2116856E+06    3.7941584E-08    3.7233593E-08    2.2116856E+06    9.0066644E-08    2.2116880E+06
   -3.62   700.000    4.177E+00    2.2480393E+06    3.6407918E-08    3.5679132E-08    2.2480393E+06    8.5358851E-08    2.2480413E+06
   -3.61   700.000    4.141E+00    2.2863820E+06    3.5041744E-08    3.4293524E-08    2.2863820E+06    8.1164745E-08    2.2863838E+06
   -3.60   700.000    4.108E+00    2.3265186E+06    3.3833778E-08    3.3067510E-08    2.3265186E+06    7.7458460E-08    2.3265201E+06
   -3.59   700.000    4.076E+00    2.3682455E+06    3.2775623E-08    3.1992673E-08    2.3682455E+06    7.4212733E-08    2.3682468E+06
   -3.58   700.000    4.046E+00    2.4113547E+06    3.1859961E-08    3.1061631E-08    2.4113547E+06    7.1399962E-08    2.4113558E+06
   -3.57   700.000    4.017E+00    2.4556364E+06    3.1080476E-08    3.0267963E-08    2.4556364E+06    6.8992778E-08    2.4556373E+06
   -3.56   700.000    3.989E+00    2.5008804E+06    3.0431565E-08    2.9605927E-08    2.5008804E+06    6.6964196E-08    2.5008812E+06
   -3.55   700.000    3.962E+00    2.5468774E+06    2.9907912E-08    2.9070049E-08    2.5468774E+06    6.5287458E-08    2.5468781E+06
   -3.54   700.000    3.935E+00    2.5934184E+06    2.9504038E-08    2.8654671E-08    2.5934184E+06    6.3935722E-08    2.5934189E+06
   -3.53   700.000    3.910E+00    2.6402939E+06    2.9213896E-08    2.8353559E-08    2.6402939E+06    6.2881723E-08    2.6402943E+06
   -3.52   700.000    3.885E+00    2.6872941E+06    2.9030562E-08    2.8159604E-08    2.6872941E+06    6.2097528E-08    2.6872945E+06
   -3.51   700.000    3.860E+00    2.7342102E+06    2.8946067E-08    2.8064661E-08    2.7342102E+06    6.1554414E-08    2.7342105E+06
   -3.50   700.000    3.835E+00    2.7808376E+06    2.8951329E-08    2.8059487E-08    2.7808376E+06    6.1222891E-08    2.7808379E+06
   -3.49   700.000    3.811E+00    2.8269815E+06    2.9036182E-08    2.8133776E-08    2.8269815E+06    6.1072798E-08    2.8269817E+06
   -3.48   700.000    3.787E+00    2.8724641E+06    2.9189446E-08    2.8276232E-08    2.8724641E+06    6.1073461E-08    2.8724643E+06
   -3.47   700.000    3.762E+00    2.9171312E+06    2.9399028E-08    2.8474669E-08    2.9171312E+06    6.1193883E-08    2.9171314E+06
   -3.46   700.000    3.738E+00    2.9608583E+06    2.9652042E-08    2.8716130E-08    2.9608583E+06    6.1402981E-08    2.9608584E+06
   -3.45   700.000    3.713E+00    3.0035530E+06    2.9934968E-08    2.8987041E-08    3.0035530E+06    6.1669948E-08    3.0035531E+06
   -3.44   700.000    3.689E+00    3.0451554E+06    3.0233878E-08    2.9273427E-08    3.0451554E+06    6.1964769E-08    3.0451555E+06
   -3.43   700.000    3.664E+00    3.0856349E+06    3.0534737E-08    2.9561218E-08    3.0856349E+06    6.2258928E-08    3.0856350E+06
   -3.42   700.000    3.638E+00    3.1249857E+06    3.0823810E-08    2.9836638E-08    3.1249857E+06    6.2526266E-08    3.1249859E+06
   -3.41   700.000    3.613E+00    3.1632216E+06    3.1088127E-08    3.0086677E-08    3.1632216E+06    6.2743867E-08    3.1632217E+06
   -3.40   700.000    3.587E+00    3.2003711E+06    3.1315974E-08    3.0299573E-08    3.2003711E+06    6.2892820E-08    3.2003712E+06
   -3.39   700.000    3.560E+00    3.2364737E+06    3.1497340E-08    3.0465270E-08    3.2364737E+06    6.2958698E-08    3.2364738E+06
   -3.38   700.000    3.534E+00    3.2715768E+06    3.1624265E-08    3.0575763E-08    3.2715768E+06    6.2931636E-08    3.2715770E+06
   -3.37   700.000    3.507E+00    3.3057319E+06    3.1691033E-08    3.0625305E-08    3.3057319E+06    6.2805983E-08    3.3057320E+06
   -3.36   700.000    3.479E+00    3.3389900E+06    3.1694210E-08    3.0610456E-08    3.3389900E+06    6.2579632E-08    3.3389902E+06
   -3.35   700.000    3.451E+00    3.3713960E+06    3.1632542E-08    3.0529993E-08    3.3713960E+06    6.2253171E-08    3.3713962E+06
   -3.34   700.000    3.423E+00    3.4029812E+06    3.1506763E-08    3.0384729E-08    3.4029812E+06    6.1829082E-08    3.4029815E+06
   -3.33   700.000    3.395E+00    3.4337572E+06    3.1319357E-08    3.0177291E-08    3.4337572E+06    6.1311145E-08    3.4337574E+06
   -3.32   700.000    3.366E+00    3.4637098E+06    3.1074344E-08    2.9911908E-08    3.4637098E+06    6.0704165E-08    3.4637101E+06
   -3.31   700.000    3.336E+00    3.4927976E+06    3.0777094E-08    2.9594224E-08    3.4927976E+06    6.0014002E-08    3.4927980E+06
   -3.30   700.000    3.307E+00    3.5209533E+06    3.0434176E-08    2.9231139E-08    3.5209533E+06    5.9247821E-08    3.5209538E+06
   -3.29   700.000    3.277E+00    3.5480892E+06    3.0053214E-08    2.8830651E-08    3.5480892E+06    5.8414393E-08    3.5480897E+06
   -3.28   700.000    3.247E+00    3.5741050E+06    2.9642705E-08    2.8401648E-08    3.5741050E+06    5.7524292E-08    3.5741056E+06
   -3.27   700.000    3.216E+00    3.5988970E+06    2.9211766E-08    2.7953634E-08    3.5988970E+06    5.6589853E-08    3.5988977E+06
   -3.26   700.000    3.186E+00    3.6223650E+06    2.8769793E-08    2.7496357E-08    3.6223650E+06    5.5624864E-08    3.6223658E+06
   -3.25   700.000    3.155E+00    3.6444179E+06    2.8326056E-08    2.7039373E-08    3.6444179E+06    5.4644019E-08    3.6444189E+06
   -3.24   700.000    3.124E+00    3.6649748E+06    2.7889244E-08    2.6591584E-08    3.6649748E+06    5.3662252E-08    3.6649760E+06
   -3.23   700.000    3.093E+00    3.6839648E+06    2.7467051E-08    2.6160798E-08    3.6839648E+06    5.2694087E-08    3.6839661E+06
   -3.22   700.000    3.062E+00    3.7013247E+06    2.7065837E-08    2.5753394E-08    3.7013247E+06    5.1753106E-08    3.7013263E+06
   -3.21   700.000    3.031E+00    3.7169986E+06    2.6690409E-08    2.5374105E-08    3.7169986E+06    5.0851632E-08    3.7170004E+06
   -3.20   700.000    2.999E+00    3.7309397E+06    2.6343965E-08    2.5025968E-08    3.7309397E+06    5.0000616E-08    3.7309419E+06
   -3.19   700.000    2.968E+00    3.7431158E+06    2.6028172E-08    2.4710424E-08    3.7431158E+06    4.9209705E-08    3.7431184E+06
   -3.18   700.000    2.936E+00    3.7535180E+06    2.5743377E-08    2.4427535E-08    3.7535180E+06    4.8487427E-08    3.7535211E+06
   -3.17   700.000    2.904E+00    3.7621710E+06    2.5488890E-08    2.4176296E-08    3.7621710E+06    4.7841400E-08    3.7621746E+06
   -3.16   700.000    2.872E+00    3.7691425E+06    2.5263321E-08    2.3954982E-08    3.7691425E+06    4.7278528E-08    3.7691468E+06
   -3.15   700.000    2.839E+00    3.7745502E+06    2.5064898E-08    2.3761483E-08    3.7745502E+06    4.6805130E-08    3.7745552E+06
   -3.14   700.000    2.807E+00    3.7785632E+06    2.4891754E-08    2.3593605E-08    3.7785632E+06    4.6426986E-08    3.7785692E+06
   -3.13   700.000    2.773E+00    3.7813983E+06    2.4742131E-08    2.3449284E-08    3.7813983E+06    4.6149302E-08    3.7814053E+06
   -3.12   700.000    2.739E+00    3.7833103E+06    2.4614496E-08    2.3326714E-08    3.7833103E+06    4.5976605E-08    3.7833186E+06
   -3.11   700.000    2.705E+00    3.7845790E+06    2.4507568E-08    2.3224381E-08    3.7845790E+06    4.5912582E-08    3.7845888E+06
   -3.10   700.000    2.670E+00    3.7854926E+06    2.4420262E-08    2.3141009E-08    3.7854926E+06    4.5959887E-08    3.7855041E+06
   -3.09   700.000    2.633E+00    3.7863318E+06    2.4351586E-08    2.3075461E-08    3.7863318E+06    4.6119946E-08    3.7863454E+06
   -3.08   700.000    2.596E+00    3.7873536E+06    2.4300521E-08    2.3026618E-08    3.7873536E+06    4.6392797E-08    3.7873696E+06
   -3.07   700.000    2.558E+00    3.7887768E+06    2.4265925E-08    2.2993283E-08    3.7887768E+06    4.6776978E-08    3.7887957E+06
   -3.06   700.000    2.518E+00    3.7907689E+06    2.4246492E-08    2.2974132E-08    3.7907689E+06    4.7269506E-08    3.7907911E+06
   -3.05   700.000    2.477E+00    3.7934334E+06    2.4240769E-08    2.2967733E-08    3.7934334E+06    4.7865920E-08    3.7934596E+06
   -3.04   700.000    2.435E+00    3.7967989E+06    2.4247225E-08    2.2972600E-08    3.7967989E+06    4.8560364E-08    3.7968297E+06
   -3.03   700.000    2.391E+00    3.8008076E+06    2.4264330E-08    2.2987277E-08    3.8008076E+06    4.9345645E-08    3.8008439E+06
   -3.02   700.000    2.345E+00    3.8053076E+06    2.4290604E-08    2.3010375E-08    3.8053076E+06    5.0213212E-08    3.8053503E+06
   -3.01   700.000    2.297E+00    3.8100477E+06    2.4324585E-08    2.3040539E-08    3.8100477E+06    5.1152990E-08    3.8100979E+06
   -3.00   700.000    2.247E+00    3.8146791E+06    2.4364698E-08    2.3076318E-08    3.8146791E+06    5.2153059E-08    3.8147380E+06
   -2.99   700.000    2.195E+00    3.8187638E+06    2.4409037E-08    2.3115934E-08    3.8187638E+06    5.3199216E-08    3.8188330E+06
   -2.98   700.000    2.141E+00    3.8217910E+06    2.4455079E-08    2.3157002E-08    3.8217910E+06    5.4274485E-08    3.8218722E+06
   -2.97   700.000    2.085E+00    3.8232008E+06    2.4499404E-08    2.3196240E-08    3.8232008E+06    5.5358698E-08    3.8232959E+06
   -2.96   700.000    2.027E+00    3.8224120E+06    2.4537484E-08    2.3229247E-08    3.8224120E+06    5.6428267E-08    3.8225233E+06
   -2.95   700.000    1.967E+00    3.8188528E+06    2.4563580E-08    2.3250407E-08    3.8188528E+06    5.7456240E-08    3.8189828E+06
   -2.94   700.000    1.905E+00    3.8119881E+06    2.4570805E-08    2.3252933E-08    3.8119881E+06    5.8412728E-08    3.8121398E+06
   -2.93   700.000    1.842E+00    3.8013443E+06    2.4551328E-08    2.3229085E-08    3.8013443E+06    5.9265704E-08    3.8015209E+06
   -2.92   700.000    1.776E+00    3.7865253E+06    2.4496728E-08    2.3170513E-08    3.7865253E+06    5.9982150E-08    3.7867305E+06
   -2.91   700.000    1.710E+00    3.7672233E+06    2.4398429E-08    2.3068706E-08    3.7672233E+06    6.0529471E-08    3.7674612E+06
   -2.90   700.000    1.642E+00    3.7432224E+06    2.4248199E-08    2.2915493E-08    3.7432224E+06    6.0877066E-08    3.7434973E+06
   -2.89   700.000    1.574E+00    3.7143967E+06    2.4038640E-08    2.2703536E-08    3.7143967E+06    6.0997921E-08    3.7147134E+06
   -2.88   700.000    1.505E+00    3.6807067E+06    2.3763641E-08    2.2426795E-08    3.6807067E+06    6.0870092E-08    3.6810703E+06
   -2.87   700.000    1.436E+00    3.6421928E+06    2.3418768E-08    2.2080912E-08    3.6421928E+06    6.0477943E-08    3.6426086E+06
   -2.86   700.000    1.368E+00    3.5989699E+06    2.3001555E-08    2.1663499E-08    3.5989699E+06    5.9813055E-08    3.5994434E+06
   -2.85   700.000    1.300E+00    3.5512207E+06    2.2511678E-08    2.1174320E-08    3.5512207E+06    5.8874719E-08    3.5517574E+06
   -2.84   700.000    1.233E+00    3.4991893E+06    2.1951022E-08    2.0615340E-08    3.4991893E+06    5.7670009E-08    3.4997948E+06
   -2.83   700.000    1.168E+00    3.4431733E+06    2.1323613E-08    1.9990663E-08    3.4431733E+06    5.6213436E-08    3.4438529E+06
   -2.82   700.000    1.104E+00    3.3835140E+06    2.0635442E-08    1.9306348E-08    3.3835140E+06    5.4526234E-08    3.3842724E+06
   -2.81   700.000    1.043E+00    3.3205841E+06    1.9894181E-08    1.8570125E-08    3.3205841E+06    5.2635345E-08    3.3214257E+06
   -2.80   700.000    9.834E-01    3.2547743E+06    1.9108810E-08    1.7791022E-08    3.2547743E+06    5.0572167E-08    3.2557027E+06
   -2.79   700.000    9.264E-01    3.1864789E+06    1.8289193E-08    1.6978946E-08    3.1864789E+06    4.8371170E-08    3.1874973E+06
   -2.78   700.000    8.720E-01    3.1160829E+06    1.7445622E-08    1.6144220E-08    3.1160829E+06    4.6068428E-08    3.1171932E+06
   -2.77   700.000    8.202E-01    3.0439506E+06    1.6588369E-08    1.5297146E-08    3.0439506E+06    4.3700182E-08    3.0451541E+06
   -2.76   700.000    7.710E-01    2.9704178E+06    1.5727287E-08    1.4447597E-08    2.9704178E+06    4.1301495E-08    2.9717150E+06
   -2.75   700.000    7.245E-01    2.8957883E+06    1.4871468E-08    1.3604677E-08    2.8957883E+06    3.8905079E-08    2.8971787E+06
   -2.74   700.000    6.806E-01    2.8203316E+06    1.4028995E-08    1.2776473E-08    2.8203316E+06    3.6540346E-08    2.8218141E+06
   -2.73   700.000    6.392E-01    2.7442850E+06    1.3206775E-08    1.1969884E-08    2.7442850E+06    3.4232717E-08    2.7458577E+06
   -2.72   700.000    6.003E-01    2.6678550E+06    1.2410462E-08    1.1190547E-08    2.6678550E+06    3.2003203E-08    2.6695155E+06
   -2.71   700.000    5.637E-01    2.5912200E+06    1.1644442E-08    1.0442823E-08    2.5912200E+06    2.9868232E-08    2.5929654E+06
   -2.70   700.000    5.294E-01    2.5145328E+06    1.0911878E-08    9.7298405E-09    2.5145328E+06    2.7839717E-08    2.5163599E+06
   -2.69   700.000    4.971E-01    2.4379228E+06    1.0214789E-08    9.0535848E-09    2.4379228E+06    2.5925295E-08    2.4398281E+06
   -2.68   700.000    4.669E-01    2.3614986E+06    9.5541592E-09    8.4150032E-09    2.3614986E+06    2.4128726E-08    2.3634781E+06
   -2.67   700.000    4.385E-01    2.2853502E+06    8.9300650E-09    7.8141388E-09    2.2853502E+06    2.2450397E-08    2.2874000E+06
   -2.66   700.000    4.118E-01    2.2095529E+06    8.3418241E-09    7.2502772E-09    2.2095529E+06    2.0887896E-08    2.2116689E+06
   -2.65   700.000    3.868E-01    2.1341704E+06    7.7881559E-09    6.7221085E-09    2.1341704E+06    1.9436619E-08    2.1363483E+06
   -2.64   700.000    3.632E-01    2.0592593E+06    7.2673536E-09    6.2278981E-09    2.0592593E+06    1.8090378E-08    2.0614948E+06
   -2.63   700.000    3.411E-01    1.9848714E+06    6.7774579E-09    5.7656587E-09    1.9848714E+06    1.6841974E-08    1.9871601E+06
   -2.62   700.000    3.202E-01    1.9110563E+06    6.3164207E-09    5.3333122E-09    1.9110563E+06    1.5683709E-08    1.9133937E+06
   -2.61   700.000    3.005E-01    1.8378623E+06    5.8822470E-09    4.9288289E-09    1.8378623E+06    1.4607812E-08    1.8402439E+06
   -2.60   700.000    2.820E-01    1.7653357E+06    5.4731024E-09    4.5503335E-09    1.7653357E+06    1.3606772E-08    1.7677569E+06
   -2.59   700.000    2.644E-01    1.6935207E+06    5.0873817E-09    4.1961694E-09    1.6935207E+06    1.2673573E-08    1.6959772E+06
   -2.58   700.000    2.479E-01    1.6224588E+06    4.7237351E-09    3.8649225E-09    1.6224588E+06    1.1801848E-08    1.6249459E+06
   -2.57   700.000    2.322E-01    1.5521887E+06    4.3810565E-09    3.5554060E-09    1.5521887E+06    1.0985950E-08    1.5547019E+06
   -2.56   700.000    2.174E-01    1.4827473E+06    4.0584431E-09    3.2666174E-09    1.4827473E+06    1.0220973E-08    1.4852821E+06
   -2.55   700.000    2.033E-01    1.4141718E+06    3.7551372E-09    2.9976788E-09    1.4141718E+06    9.5027301E-09    1.4167238E+06
   -2.54   700.000    1.900E-01    1.3465011E+06    3.4704622E-09    2.7477730E-09    1.3465011E+06    8.8276933E-09    1.3490657E+06
   -2.53   700.000    1.773E-01    1.2797778E+06    3.2037637E-09    2.5160873E-09    1.2797778E+06    8.1929237E-09    1.2823506E+06
   -2.52   700.000    1.653E-01    1.2140498E+06    2.9543635E-09    2.3017726E-09    1.2140498E+06    7.5959845E-09    1.2166260E+06
   -2.51   700.000    1.539E-01    1.1493705E+06    2.7215300E-09    2.1039196E-09    1.1493705E+06    7.0348485E-09    1.1519453E+06
   -2.50   700.000    1.431E-01    1.0857996E+06    2.5044657E-09    1.9215535E-09    1.0857996E+06    6.5078041E-09    1.0883678E+06
   -2.49   700.000    1.328E-01    1.0234023E+06    2.3023090E-09    1.7536433E-09    1.0234023E+06    6.0133621E-09    1.0259584E+06
   -2.48   700.000    1.230E-01    9.6225007E+05    2.1141473E-09    1.5991201E-09    9.6225007E+05    5.5501677E-09    9.6478803E+05
   -2.47   700.000    1.138E-01    9.0241962E+05    1.9390374E-09    1.4569033E-09    9.0241962E+05    5.1169219E-09    9.0493285E+05
   -2.46   700.000    1.050E-01    8.4399356E+05    1.7760322E-09    1.3259285E-09    8.4399356E+05    4.7123169E-09    8.4647490E+05
   -2.45   700.000    9.667E-02    7.8706022E+05    1.6242080E-09    1.2051763E-09    7.8706022E+05    4.3349911E-09    7.8950197E+05
   -2.44   700.000    8.878E-02    7.3171371E+05    1.4826928E-09    1.0936992E-09    7.3171371E+05    3.9835051E-09    7.3410767E+05
   -2.43   700.000    8.133E-02    6.7805352E+05    1.3506916E-09    9.9064426E-10    6.7805352E+05    3.6563418E-09    6.8039118E+05
   -2.42   700.000    7.429E-02    6.2618373E+05    1.2275061E-09    8.9526935E-10    6.2618373E+05    3.3519269E-09    6.2845639E+05
   -2.41   700.000    6.766E-02    5.7621148E+05    1.1125461E-09    8.0695131E-10    5.7621148E+05    3.0686670E-09    5.7841049E+05
   -2.40   700.000    6.143E-02    5.2824486E+05    1.0053320E-09    7.2518461E-10    5.2824486E+05    2.8049973E-09    5.3036183E+05
   -2.39   700.000    5.559E-02    4.8239011E+05    9.0548760E-10    6.4957103E-10    4.8239011E+05    2.5594324E-09    4.8441715E+05
   -2.38   700.000    5.013E-02    4.3874819E+05    8.1272339E-10    5.7980176E-10    4.3874819E+05    2.3306122E-09    4.4067814E+05
   -2.37   700.000    4.505E-02    3.9741109E+05    7.2681495E-10    5.1563442E-10    3.9741109E+05    2.1173369E-09    3.9923775E+05
   -2.36   700.000    4.034E-02    3.5845781E+05    6.4757772E-10    4.5686827E-10    3.5845781E+05    1.9185873E-09    3.6017610E+05
   -2.35   700.000    3.599E-02    3.2195048E+05    5.7484234E-10    4.0332074E-10    3.2195048E+05    1.7335287E-09    3.2355664E+05
   -2.34   700.000    3.199E-02    2.8793075E+05    5.0843345E-10    3.5480788E-10    2.8793075E+05    1.5614990E-09    2.8942244E+05
   -2.33   700.000    2.832E-02    2.5641691E+05    4.4815373E-10    3.1113048E-10    2.5641691E+05    1.4019839E-09    2.5779329E+05
   -2.32   700.000    2.499E-02    2.2740185E+05    3.9377435E-10    2.7206639E-10    2.2740185E+05    1.2545826E-09    2.2866355E+05
   -2.31   700.000    2.197E-02    2.0085214E+05    3.4503163E-10    2.3736876E-10    2.0085214E+05    1.1189686E-09    2.0200125E+05
   -2.30   700.000    1.924E-02    1.7670837E+05    3.0162917E-10    2.0676910E-10    1.7670837E+05    9.9485105E-10    1.7774833E+05
   -2.29   700.000    1.680E-02    1.5488680E+05    2.6324393E-10    1.7998358E-10    1.5488680E+05    8.8194017E-10    1.5582218E+05
   -2.28   700.000    1.462E-02    1.3528202E+05    2.2953510E-10    1.5672137E-10    1.3528202E+05    7.7992077E-10    1.3611838E+05
   -2.27   700.000    1.269E-02    1.1777065E+05    2.0015410E-10    1.3669333E-10    1.1777065E+05    6.8843559E-10    1.1851428E+05
   -2.26   700.000    1.098E-02    1.0221556E+05    1.7475468E-10    1.1962047E-10    1.0221556E+05    6.0707927E-10    1.0287327E+05
   -2.25   700.000    9.477E-03    8.8470408E+04    1.5300236E-10    1.0524117E-10    8.8470408E+04    5.3540188E-10    8.9049287E+04
   -2.24   700.000    8.161E-03    7.6384106E+04    1.3458262E-10    9.3317210E-11    7.6384106E+04    4.7292036E-10    7.6891305E+04
   -2.23   700.000    7.011E-03    6.5804907E+04    1.1920770E-10    8.3638360E-11    6.5804907E+04    4.1913532E-10    6.6247477E+04
   -2.22   700.000    6.012E-03    5.6583998E+04    1.0662187E-10    7.6025754E-11    5.6583998E+04    3.7355090E-10    5.6968740E+04
   -2.21   700.000    5.145E-03    4.8578393E+04    9.6605582E-11    7.0334315E-11    4.8578393E+04    3.3569554E-10    4.8911750E+04
   -2.20   700.000    4.396E-03    4.1653145E+04    8.8978453E-11    6.6454519E-11    4.1653145E+04    3.0514221E-10    4.1941122E+04
   -2.19   700.000    3.749E-03    3.5682860E+04    8.3601653E-11    6.4313800E-11    3.5682860E+04    2.8152702E-10    3.5930982E+04
   -2.18   700.000    3.192E-03    3.0552615E+04    8.0379825E-11    6.3877895E-11    3.0552615E+04    2.6456614E-10    3.0765903E+04
   -2.17   700.000    2.713E-03    2.6158357E+04    7.9262935E-11    6.5152383E-11    2.6158357E+04    2.5407082E-10    2.6341330E+04
   -2.16   700.000    2.301E-03    2.2406896E+04    8.0248309E-11    6.8184656E-11    2.2406896E+04    2.4996123E-10    2.2563586E+04
   -2.15   700.000    1.948E-03    1.9215596E+04    8.3383118E-11    7.3066506E-11    1.9215596E+04    2.5227966E-10    1.9349573E+04
   -2.14   700.000    1.644E-03    1.6511858E+04    8.8767549E-11    7.9937542E-11    1.6511858E+04    2.6120378E-10    1.6626262E+04
   -2.13   700.000    1.382E-03    1.4232472E+04    9.6558880E-11    8.8989579E-11    1.4232472E+04    2.7706085E-10    1.4330051E+04
   -2.12   700.000    1.157E-03    1.2322906E+04    1.0697668E-10    1.0047220E-10    1.2322906E+04    3.0034368E-10    1.2406053E+04
   -2.11   700.000    9.617E-04    1.0736581E+04    1.2030930E-10    1.1469967E-10    1.0736581E+04    3.3172905E-10    1.0807371E+04
   -2.10   700.000    7.919E-04    9.4341694E+03    1.3692197E-10    1.3205934E-10    9.4341694E+03    3.7209949E-10    9.4943943E+03
   -2.09   700.000    6.432E-04    8.3829401E+03    1.5726657E-10    1.5302186E-10    8.3829401E+03    4.2256902E-10    8.4341453E+03
   -2.08   700.000    5.117E-04    7.5561733E+03    1.8189345E-10    1.7815330E-10    7.5561733E+03    4.8451385E-10    7.5996867E+03
   -2.07   700.000    3.938E-04    6.9326511E+03    2.1146552E-10    2.0812954E-10    6.9326511E+03    5.5960854E-10    6.9696114E+03
   -2.06   700.000    2.866E-04    6.4962330E+03    2.4677480E-10    2.4375306E-10    6.4962330E+03    6.4986863E-10    6.5276150E+03
   -2.05   700.000    1.871E-04    6.2355189E+03    2.8876183E-10    2.8597264E-10    6.2355189E+03    7.5770043E-10    6.2621559E+03
   -2.04   700.000    9.273E-05    6.1436002E+03    3.3853817E-10    3.3590594E-10    6.1436002E+03    8.8595872E-10    6.1662032E+03
   -2.03   700.000    9.287E-07    6.2178979E+03    3.9741219E-10    3.9486553E-10    6.2178979E+03    1.0380131E-09    6.2370734E+03
   -2.02   700.000   -9.074E-05    6.4600881E+03    4.6691855E-10    4.6438839E-10    6.4600881E+03    1.2178237E-09    6.4763525E+03
   -2.01   700.000   -1.847E-04    6.8761103E+03    5.4885137E-10    5.4626917E-10    6.8761103E+03    1.4300261E-09    6.8899033E+03
   -2.00   700.000   -2.834E-04    7.4762570E+03    6.4530119E-10    6.4259718E-10    7.4762570E+03    1.6800268E-09    7.4879523E+03
   -1.99   700.000   -3.895E-04    8.2753394E+03    7.5869563E-10    7.5579702E-10    8.2753394E+03    1.9741070E-09    8.2852549E+03
   -1.98   700.000   -5.056E-04    9.2929247E+03    8.9184321E-10    8.8867234E-10    9.2929247E+03    2.3195346E-09    9.3013303E+03
   -1.97   700.000   -6.347E-04    1.0553635E+04    1.0479797E-09    1.0444521E-09    1.0553635E+04    2.7246829E-09    1.0560760E+04
   -1.96   700.000   -7.800E-04    1.2087500E+04    1.2308152E-09    1.2268375E-09    1.2087500E+04    3.1991501E-09    1.2093539E+04
   -1.95   700.000   -9.450E-04    1.3930341E+04    1.4445812E-09    1.4400489E-09    1.3930341E+04    3.7538762E-09    1.3935460E+04
   -1.94   700.000   -1.134E-03    1.6124177E+04    1.6940724E-09    1.6888674E-09    1.6124177E+04    4.4012491E-09    1.6128514E+04
   -1.93   700.000   -1.350E-03    1.8717606E+04    1.9846824E-09    1.9786701E-09    1.8717606E+04    5.1551882E-09    1.8721282E+04
   -1.92   700.000   -1.599E-03    2.1766152E+04    2.3224254E-09    2.3154519E-09    2.1766152E+04    6.0311927E-09    2.1769267E+04
   -1.91   700.000   -1.886E-03    2.5332500E+04    2.7139393E-09    2.7058277E-09    2.5332500E+04    7.0463375E-09    2.5335140E+04
   -1.90   700.000   -2.217E-03    2.9486605E+04    3.1664615E-09    3.1570084E-09    2.9486605E+04    8.2191944E-09    2.9488842E+04
   -1.89   700.000   -2.597E-03    3.4305584E+04    3.6877698E-09    3.6767405E-09    3.4305584E+04    9.5696562E-09    3.4307480E+04
   -1.88   700.000   -3.034E-03    3.9873360E+04    4.2860776E-09    4.2732014E-09    3.9873360E+04    1.1118638E-08    3.9874965E+04
   -1.87   700.000   -3.536E-03    4.6279980E+04    4.9698761E-09    4.9548411E-09    4.6279980E+04    1.2887631E-08    4.6281341E+04
   -1.86   700.000   -4.108E-03    5.3620597E+04    5.7477153E-09    5.7301622E-09    5.3620597E+04    1.4898089E-08    5.3621750E+04
   -1.85   700.000   -4.761E-03    6.1994057E+04    6.6279208E-09    6.6074370E-09    6.1994057E+04    1.7170633E-08    6.1995034E+04
   -1.84   700.000   -5.501E-03    7.1501152E+04    7.6182483E-09    7.5943615E-09    7.1501152E+04    1.9724091E-08    7.1501979E+04
   -1.83   700.000   -6.336E-03    8.2242540E+04    8.7254869E-09    8.6976591E-09    8.2242540E+04    2.2574384E-08    8.2243241E+04
   -1.82   700.000   -7.275E-03    9.4316470E+04    9.9550318E-09    9.9226535E-09    9.4316470E+04    2.5733336E-08    9.4317064E+04
   -1.81   700.000   -8.326E-03    1.0781640E+05    1.1310460E-08    1.1272846E-08    1.0781640E+05    2.9207481E-08    1.0781690E+05
   -1.80   700.000   -9.494E-03    1.2282868E+05    1.2793151E-08    1.2749537E-08    1.2282868E+05    3.2997026E-08    1.2282911E+05
   -1.79   700.000   -1.079E-02    1.3943044E+05    1.4402014E-08    1.4351554E-08    1.3943044E+05    3.7095094E-08    1.3943080E+05
   -1.78   700.000   -1.221E-02    1.5768786E+05    1.6133362E-08    1.6075129E-08    1.5768786E+05    4.1487447E-08    1.5768816E+05
   -1.77   700.000   -1.377E-02    1.7765481E+05    1.7980993E-08    1.7913975E-08    1.7765481E+05    4.6152818E-08    1.7765507E+05
   -1.76   700.000   -1.547E-02    1.9937215E+05    1.9936493E-08    1.9859597E-08    1.9937215E+05    5.1063940E-08    1.9937237E+05
   -1.75   700.000   -1.730E-02    2.2286740E+05    2.1989751E-08    2.1901800E-08    2.2286740E+05    5.6189248E-08    2.2286759E+05
   -1.74   700.000   -1.928E-02    2.4815504E+05    2.4129635E-08    2.4029369E-08    2.4815504E+05    6.1495092E-08    2.4815520E+05
   -1.73   700.000   -2.141E-02    2.7523718E+05    2.6344721E-08    2.6230800E-08    2.7523718E+05    6.6948142E-08    2.7523731E+05
   -1.72   700.000   -2.368E-02    3.0410460E+05    2.8623943E-08    2.8494955E-08    3.0410460E+05    7.2517557E-08    3.0410471E+05
   -1.71   700.000   -2.609E-02    3.3473809E+05    3.0957034E-08    3.0811511E-08    3.3473809E+05    7.8176469E-08    3.3473818E+05
   -1.70   700.000   -2.864E-02    3.6710990E+05    3.3334644E-08    3.3171085E-08    3.6710990E+05    8.3902438E-08    3.6710998E+05
   -1.69   700.000   -3.133E-02    4.0118530E+05    3.5748121E-08    3.5565029E-08    4.0118530E+05    8.9676737E-08    4.0118537E+05
   -1.68   700.000   -3.417E-02    4.3692411E+05    3.8189014E-08    3.7984943E-08    4.3692411E+05    9.5482683E-08    4.3692417E+05
   -1.67   700.000   -3.713E-02    4.7428207E+05    4.0648471E-08    4.0422086E-08    4.7428207E+05    1.0130349E-07    4.7428212E+05
   -1.66   700.000   -4.023E-02    5.1321211E+05    4.3116763E-08    4.2866911E-08    5.1321211E+05    1.0712039E-07    5.1321215E+05
   -1.65   700.000   -4.346E-02    5.5366539E+05    4.5583168E-08    4.5308951E-08    5.5366539E+05    1.1291166E-07    5.5366542E+05
   -1.64   700.000   -4.682E-02    5.9559225E+05    4.8036349E-08    4.7737209E-08    5.9559225E+05    1.1865323E-07    5.9559228E+05
   -1.63   700.000   -5.030E-02    6.3894299E+05    5.0465266E-08    5.0141063E-08    6.3894299E+05    1.2432076E-07    6.3894302E+05
   -1.62   700.000   -5.390E-02    6.8366862E+05    5.2860482E-08    5.2511568E-08    6.8366862E+05    1.2989319E-07    6.8366865E+05
   -1.61   700.000   -5.763E-02    7.2972159E+05    5.5215597E-08    5.4842881E-08    7.2972159E+05    1.3535671E-07    7.2972161E+05
   -1.60   700.000   -6.147E-02    7.7705646E+05    5.7528518E-08    5.7133500E-08    7.7705646E+05    1.4070862E-07    7.7705647E+05
   -1.59   700.000   -6.542E-02    8.2563055E+05    5.9802254E-08    5.9387046E-08    8.2563055E+05    1.4596007E-07    8.2563057E+05
   -1.58   700.000   -6.949E-02    8.7540440E+05    6.2045084E-08    6.1612384E-08    8.7540440E+05    1.5113706E-07    8.7540441E+05
   -1.57   700.000   -7.367E-02    9.2634193E+05    6.4270030E-08    6.3823071E-08    9.2634193E+05    1.5627965E-07    9.2634194E+05
   -1.56   700.000   -7.796E-02    9.7841037E+05    6.6493742E-08    6.6036203E-08    9.7841037E+05    1.6143938E-07    9.7841038E+05
   -1.55   700.000   -8.235E-02    1.0315797E+06    6.8734965E-08    6.8270860E-08    1.0315797E+06    1.6667532E-07    1.0315797E+06
   -1.54   700.000   -8.685E-02    1.0858219E+06    7.1012798E-08    7.0546360E-08    1.0858219E+06    1.7204927E-07    1.0858219E+06
   -1.53   700.000   -9.145E-02    1.1411098E+06    7.3344945E-08    7.2880506E-08    1.1411098E+06    1.7762048E-07    1.1411098E+06
   -1.52   700.000   -9.615E-02    1.1974163E+06    7.5746077E-08    7.5287976E-08    1.1974163E+06    1.8344038E-07    1.1974163E+06
   -1.51   700.000   -1.009E-01    1.2547135E+06    7.8226411E-08    7.7778934E-08    1.2547135E+06    1.8954756E-07    1.2547135E+06
   -1.50   700.000   -1.058E-01    1.3129724E+06    8.0790533E-08    8.0357887E-08    1.3129724E+06    1.9596323E-07    1.3129724E+06
   -1.49   700.000   -1.108E-01    1.3721633E+06    8.3436516E-08    8.3022840E-08    1.3721633E+06    2.0268761E-07    1.3721633E+06
   -1.48   700.000   -1.159E-01    1.4322566E+06    8.6155369E-08    8.5764767E-08    1.4322566E+06    2.0969738E-07    1.4322566E+06
   -1.47   700.000   -1.211E-01    1.4932238E+06    8.8930896E-08    8.8567479E-08    1.4932238E+06    2.1694487E-07    1.4932238E+06
   -1.46   700.000   -1.264E-01    1.5550385E+06    9.1740045E-08    9.1407970E-08    1.5550385E+06    2.2435910E-07    1.5550385E+06
   -1.45   700.000   -1.318E-01    1.6176772E+06    9.4553842E-08    9.4257333E-08    1.6176772E+06    2.3184910E-07    1.6176772E+06
   -1.44   700.000   -1.372E-01    1.6811185E+06    9.7338921E-08    9.7082273E-08    1.6811185E+06    2.3930930E-07    1.6811185E+06
   -1.43   700.000   -1.428E-01    1.7453430E+06    1.0005960E-07    9.9847171E-08    1.7453430E+06    2.4662676E-07    1.7453430E+06
   -1.42   700.000   -1.484E-01    1.8103312E+06    1.0268035E-07    1.0251652E-07    1.8103312E+06    2.5368936E-07    1.8103312E+06
   -1.41   700.000   -1.542E-01    1.8760624E+06    1.0516830E-07    1.0505746E-07    1.8760624E+06    2.6039398E-07    1.8760624E+06
   -1.40   700.000   -1.600E-01    1.9425133E+06    1.0749554E-07    1.0744206E-07    1.9425133E+06    2.6665360E-07    1.9425133E+06
   -1.39   700.000   -1.659E-01    2.0096576E+06    1.0964091E-07    1.0964911E-07    2.0096576E+06    2.7240248E-07    2.0096576E+06
   -1.38   700.000   -1.719E-01    2.0774659E+06    1.1159094E-07    1.1166507E-07    2.0774659E+06    2.7759887E-07    2.0774659E+06
   -1.37   700.000   -1.780E-01    2.1459072E+06    1.1334010E-07    1.1348432E-07    2.1459072E+06    2.8222529E-07    2.1459072E+06
   -1.36   700.000   -1.842E-01    2.2149493E+06    1.1489027E-07    1.1510864E-07    2.2149493E+06    2.8628691E-07    2.2149493E+06
   -1.35   700.000   -1.904E-01    2.2845608E+06    1.1624981E-07    1.1654622E-07    2.2845608E+06    2.8980861E-07    2.2845608E+06
   -1.34   700.000   -1.968E-01    2.3547115E+06    1.1743227E-07    1.1781040E-07    2.3547115E+06    2.9283156E-07    2.3547115E+06
   -1.33   700.000   -2.032E-01    2.4253733E+06    1.1845505E-07    1.1891832E-07    2.4253733E+06    2.9540968E-07    2.4253733E+06
   -1.32   700.000   -2.097E-01    2.4965207E+06    1.1933811E-07    1.1988960E-07    2.4965207E+06    2.9760608E-07    2.4965207E+06
   -1.31   700.000   -2.163E-01    2.5681311E+06    1.2010265E-07    1.2074502E-07    2.5681311E+06    2.9948947E-07    2.5681311E+06
   -1.30   700.000   -2.230E-01    2.6401848E+06    1.2076981E-07    1.2150529E-07    2.6401848E+06    3.0113007E-07    2.6401848E+06
   -1.29   700.000   -2.298E-01    2.7126654E+06    1.2135942E-07    1.2218979E-07    2.7126654E+06    3.0259515E-07    2.7126654E+06
   -1.28   700.000   -2.366E-01    2.7855593E+06    1.2188888E-07    1.2281541E-07    2.7855593E+06    3.0394422E-07    2.7855593E+06
   -1.27   700.000   -2.436E-01    2.8588554E+06    1.2237228E-07    1.2339571E-07    2.8588554E+06    3.0522445E-07    2.8588554E+06
   -1.26   700.000   -2.506E-01    2.9325447E+06    1.2281982E-07    1.2394036E-07    2.9325447E+06    3.0646694E-07    2.9325448E+06
   -1.25   700.000   -2.577E-01    3.0066193E+06    1.2323783E-07    1.2445508E-07    3.0066193E+06    3.0768454E-07    3.0066193E+06
   -1.24   700.000   -2.649E-01    3.0810717E+06    1.2362912E-07    1.2494201E-07    3.0810717E+06    3.0887149E-07    3.0810717E+06
   -1.23   700.000   -2.722E-01    3.1558941E+06    1.2399378E-07    1.2540050E-07    3.1558941E+06    3.1000528E-07    3.1558941E+06
   -1.22   700.000   -2.795E-01    3.2310787E+06    1.2433031E-07    1.2582828E-07    3.2310787E+06    3.1105050E-07    3.2310787E+06
   -1.21   700.000   -2.869E-01    3.3066168E+06    1.2463691E-07    1.2622272E-07    3.3066168E+06    3.1196448E-07    3.3066168E+06
   -1.20   700.000   -2.945E-01    3.3824994E+06    1.2491287E-07    1.2658236E-07    3.3824994E+06    3.1270424E-07    3.3824994E+06
   -1.19   700.000   -3.021E-01    3.4587168E+06    1.2516007E-07    1.2690840E-07    3.4587168E+06    3.1323408E-07    3.4587168E+06
   -1.18   700.000   -3.098E-01    3.5352594E+06    1.2538440E-07    1.2720617E-07    3.5352594E+06    3.1353323E-07    3.5352594E+06
   -1.17   700.000   -3.175E-01    3.6121177E+06    1.2559690E-07    1.2748629E-07    3.6121177E+06    3.1360264E-07    3.6121177E+06
   -1.16   700.000   -3.254E-01    3.6892832E+06    1.2581461E-07    1.2776548E-07    3.6892832E+06    3.1346992E-07    3.6892832E+06
   -1.15   700.000   -3.334E-01    3.7667495E+06    1.2606060E-07    1.2806661E-07    3.7667495E+06    3.1319177E-07    3.7667496E+06
   -1.14   700.000   -3.414E-01    3.8445126E+06    1.2636333E-07    1.2841797E-07    3.8445126E+06    3.1285318E-07    3.8445126E+06
   -1.13   700.000   -3.495E-01    3.9225713E+06    1.2675502E-07    1.2885165E-07    3.9225713E+06    3.1256317E-07    3.9225713E+06
   -1.12   700.000   -3.577E-01    4.0009265E+06    1.2726935E-07    1.2940122E-07    4.0009265E+06    3.1244751E-07    4.0009266E+06
   -1.11   700.000   -3.660E-01    4.0795803E+06    1.2793863E-07    1.3009894E-07    4.0795803E+06    3.1263915E-07    4.0795804E+06
   -1.10   700.000   -3.744E-01    4.1585334E+06    1.2879097E-07    1.3097290E-07    4.1585334E+06    3.1326754E-07    4.1585335E+06
   -1.09   700.000   -3.828E-01    4.2377833E+06    1.2984764E-07    1.3204457E-07    4.2377833E+06    3.1444821E-07    4.2377835E+06
   -1.08   700.000   -3.914E-01    4.3173220E+06    1.3112121E-07    1.3332685E-07    4.3173220E+06    3.1627360E-07    4.3173221E+06
   -1.07   700.000   -4.000E-01    4.3971343E+06    1.3261426E-07    1.3482292E-07    4.3971343E+06    3.1880600E-07    4.3971345E+06
   -1.06   700.000   -4.087E-01    4.4771976E+06    1.3431905E-07    1.3652584E-07    4.4771976E+06    3.2207298E-07    4.4771978E+06
   -1.05   700.000   -4.175E-01    4.5574813E+06    1.3621772E-07    1.3841873E-07    4.5574813E+06    3.2606541E-07    4.5574815E+06
   -1.04   700.000   -4.265E-01    4.6379481E+06    1.3828324E-07    1.4047563E-07    4.6379481E+06    3.3073814E-07    4.6379484E+06
   -1.03   700.000   -4.355E-01    4.7185551E+06    1.4048081E-07    1.4266273E-07    4.7185551E+06    3.3601309E-07    4.7185554E+06
   -1.02   700.000   -4.445E-01    4.7992552E+06    1.4276984E-07    1.4494031E-07    4.7992552E+06    3.4178486E-07    4.7992555E+06
   -1.01   700.000   -4.537E-01    4.8799993E+06    1.4510655E-07    1.4726507E-07    4.8799993E+06    3.4792853E-07    4.8799998E+06
   -1.00   700.000   -4.630E-01    4.9607391E+06    1.4744696E-07    1.4959319E-07    4.9607391E+06    3.5430959E-07    4.9607396E+06
   -0.99   700.000   -4.724E-01    5.0414297E+06    1.4975037E-07    1.5188371E-07    5.0414297E+06    3.6079523E-07    5.0414303E+06
   -0.98   700.000   -4.818E-01    5.1220337E+06    1.5198290E-07    1.5410209E-07    5.1220337E+06    3.6726606E-07    5.1220344E+06
   -0.97   700.000   -4.914E-01    5.2025248E+06    1.5412064E-07    1.5622348E-07    5.2025248E+06    3.7362688E-07    5.2025257E+06
   -0.96   700.000   -5.011E-01    5.2828908E+06    1.5615181E-07    1.5823500E-07    5.2828908E+06    3.7981504E-07    5.2828918E+06
   -0.95   700.000   -5.109E-01    5.3631339E+06    1.5807761E-07    1.6013676E-07    5.3631339E+06    3.8580480E-07    5.3631351E+06
   -0.94   700.000   -5.207E-01    5.4432694E+06    1.5991128E-07    1.6194104E-07    5.4432694E+06    3.9160689E-07    5.4432708E+06
   -0.93   700.000   -5.307E-01    5.5233207E+06    1.6167536E-07    1.6366974E-07    5.5233207E+06    3.9726295E-07    5.5233223E+06
   -0.92   700.000   -5.408E-01    5.6033127E+06    1.6339766E-07    1.6535038E-07    5.6033127E+06    4.0283558E-07    5.6033147E+06
   -0.91   700.000   -5.510E-01    5.6832652E+06    1.6510634E-07    1.6701129E-07    5.6832652E+06    4.0839560E-07    5.6832676E+06
   -0.90   700.000   -5.613E-01    5.7631866E+06    1.6682510E-07    1.6867672E-07    5.7631866E+06    4.1400843E-07    5.7631894E+06
   -0.89   700.000   -5.717E-01    5.8430708E+06    1.6856900E-07    1.7036266E-07    5.8430708E+06    4.1972173E-07    5.8430740E+06
   -0.88   700.000   -5.822E-01    5.9228971E+06    1.7034172E-07    1.7207405E-07    5.9228971E+06    4.2555611E-07    5.9229009E+06
   -0.87   700.000   -5.929E-01    6.0026328E+06    1.7213439E-07    1.7380344E-07    6.0026328E+06    4.3149993E-07    6.0026373E+06
   -0.86   700.000   -6.036E-01    6.0822367E+06    1.7392598E-07    1.7553143E-07    6.0822367E+06    4.3750853E-07    6.0822420E+06
   -0.85   700.000   -6.145E-01    6.1616627E+06    1.7568511E-07    1.7722832E-07    6.1616627E+06    4.4350742E-07    6.1616690E+06
   -0.84   700.000   -6.256E-01    6.2408616E+06    1.7737264E-07    1.7885675E-07    6.2408616E+06    4.4939866E-07    6.2408690E+06
   -0.83   700.000   -6.367E-01    6.3197808E+06    1.7894489E-07    1.8037487E-07    6.3197808E+06    4.5506925E-07    6.3197895E+06
   -0.82   700.000   -6.480E-01    6.3983615E+06    1.8035692E-07    1.8173962E-07    6.3983615E+06    4.6040044E-07    6.3983719E+06
   -0.81   700.000   -6.594E-01    6.4765347E+06    1.8156572E-07    1.8290991E-07    6.4765347E+06    4.6527704E-07    6.4765469E+06
   -0.80   700.000   -6.710E-01    6.5542166E+06    1.8253303E-07    1.8384939E-07    6.5542166E+06    4.6959572E-07    6.5542310E+06
   -0.79   700.000   -6.827E-01    6.6313058E+06    1.8322778E-07    1.8452880E-07    6.6313058E+06    4.7327190E-07    6.6313228E+06
   -0.78   700.000   -6.945E-01    6.7076824E+06    1.8362791E-07    1.8492768E-07    6.7076824E+06    4.7624463E-07    6.7077025E+06
   -0.77   700.000   -7.065E-01    6.7832112E+06    1.8372158E-07    1.8503547E-07    6.7832112E+06    4.7847935E-07    6.7832349E+06
   -0.76   700.000   -7.186E-01    6.8577470E+06    1.8350780E-07    1.8485191E-07    6.8577470E+06    4.7996866E-07    6.8577749E+06
   -0.75   700.000   -7.309E-01    6.9311432E+06    1.8299625E-07    1.8438674E-07    6.9311432E+06    4.8073106E-07    6.9311761E+06
   -0.74   700.000   -7.434E-01    7.0032609E+06    1.8220648E-07    1.8365883E-07    7.0032609E+06    4.8080809E-07    7.0032998E+06
   -0.73   700.000   -7.560E-01    7.0739768E+06    1.8116633E-07    1.8269448E-07    7.0739768E+06    4.8025984E-07    7.0740226E+06
   -0.72   700.000   -7.688E-01    7.1431878E+06    1.7990977E-07    1.8152528E-07    7.1431878E+06    4.7915930E-07    7.1432419E+06
   -0.71   700.000   -7.817E-01    7.2108119E+06    1.7847406E-07    1.8018543E-07    7.2108119E+06    4.7758558E-07    7.2108758E+06
   -0.70   700.000   -7.948E-01    7.2767846E+06    1.7689668E-07    1.7870885E-07    7.2767846E+06    4.7561673E-07    7.2768600E+06
   -0.69   700.000   -8.080E-01    7.3410512E+06    1.7521221E-07    1.7712629E-07    7.3410512E+06    4.7332277E-07    7.3411401E+06
   -0.68   700.000   -8.214E-01    7.4035585E+06    1.7344967E-07    1.7546305E-07    7.4035585E+06    4.7076009E-07    7.4036634E+06
   -0.67   700.000   -8.349E-01    7.4642473E+06    1.7163066E-07    1.7373741E-07    7.4642473E+06    4.6796789E-07    7.4643710E+06
   -0.66   700.000   -8.486E-01    7.5230477E+06    1.6976869E-07    1.7196024E-07    7.5230477E+06    4.6496767E-07    7.5231936E+06
   -0.65   700.000   -8.624E-01    7.5798783E+06    1.6786970E-07    1.7013577E-07    7.5798783E+06    4.6176585E-07    7.5800503E+06
   -0.64   700.000   -8.763E-01    7.6346501E+06    1.6593381E-07    1.6826343E-07    7.6346501E+06    4.5835897E-07    7.6348529E+06
   -0.63   700.000   -8.904E-01    7.6872730E+06    1.6395783E-07    1.6634031E-07    7.6872730E+06    4.5474076E-07    7.6875121E+06
   -0.62   700.000   -9.045E-01    7.7376626E+06    1.6193811E-07    1.6436393E-07    7.7376626E+06    4.5090935E-07    7.7379444E+06
   -0.61   700.000   -9.188E-01    7.7857458E+06    1.5987319E-07    1.6233454E-07    7.7857458E+06    4.4687327E-07    7.7860777E+06
   -0.60   700.000   -9.331E-01    7.8314622E+06    1.5776565E-07    1.6025671E-07    7.8314622E+06    4.4265492E-07    7.8318531E+06
   -0.59   700.000   -9.475E-01    7.8747614E+06    1.5562299E-07    1.5813981E-07    7.8747614E+06    4.3829089E-07    7.8752217E+06
   -0.58   700.000   -9.620E-01    7.9155960E+06    1.5345734E-07    1.5599747E-07    7.9155960E+06    4.3382904E-07    7.9161377E+06
   -0.57   700.000   -9.766E-01    7.9539112E+06    1.5128414E-07    1.5384602E-07    7.9539112E+06    4.2932326E-07    7.9545483E+06
   -0.56   700.000   -9.912E-01    7.9896358E+06    1.4912019E-07    1.5170248E-07    7.9896358E+06    4.2482687E-07    7.9903848E+06
   -0.55   700.000   -1.006E+00    8.0226751E+06    1.4698147E-07    1.4958245E-07    8.0226751E+06    4.2038637E-07    8.0235549E+06
   -0.54   700.000   -1.021E+00    8.0529098E+06    1.4488119E-07    1.4749832E-07    8.0529098E+06    4.1603654E-07    8.0539422E+06
   -0.53   700.000   -1.035E+00    8.0802018E+06    1.4282845E-07    1.4545817E-07    8.0802018E+06    4.1179803E-07    8.0814122E+06
   -0.52   700.000   -1.050E+00    8.1044069E+06    1.4082776E-07    1.4346557E-07    8.1044069E+06    4.0767765E-07    8.1058244E+06
   -0.51   700.000   -1.065E+00    8.1253920E+06    1.3887943E-07    1.4152015E-07    8.1253920E+06    4.0367140E-07    8.1270499E+06
   -0.50   700.000   -1.079E+00    8.1430538E+06    1.3698078E-07    1.3961902E-07    8.1430538E+06    3.9976945E-07    8.1449896E+06
   -0.49   700.000   -1.094E+00    8.1573349E+06    1.3512798E-07    1.3775858E-07    8.1573349E+06    3.9596229E-07    8.1595911E+06
   -0.48   700.000   -1.109E+00    8.1682343E+06    1.3331802E-07    1.3593650E-07    8.1682343E+06    3.9224677E-07    8.1708583E+06
   -0.47   700.000   -1.124E+00    8.1758101E+06    1.3155071E-07    1.3415358E-07    8.1758101E+06    3.8863111E-07    8.1788544E+06
   -0.46   700.000   -1.138E+00    8.1801735E+06    1.2983011E-07    1.3241509E-07    8.1801735E+06    3.8513783E-07    8.1836955E+06
   -0.45   700.000   -1.153E+00    8.1814751E+06    1.2816539E-07    1.3073140E-07    8.1814751E+06    3.8180429E-07    8.1855364E+06
   -0.44   700.000   -1.167E+00    8.1798861E+06    1.2657077E-07    1.2911788E-07    8.1798861E+06    3.7868075E-07    8.1845522E+06
   -0.43   700.000   -1.182E+00    8.1755783E+06    1.2506472E-07    1.2759392E-07    8.1755783E+06    3.7582620E-07    8.1809169E+06
   -0.42   700.000   -1.196E+00    8.1687071E+06    1.2366840E-07    1.2618145E-07    8.1687071E+06    3.7330291E-07    8.1747862E+06
   -0.41   700.000   -1.210E+00    8.1594006E+06    1.2240381E-07    1.2490300E-07    8.1594006E+06    3.7117045E-07    8.1662865E+06
   -0.40   700.000   -1.225E+00    8.1477590E+06    1.2129166E-07    1.2377967E-07    8.1477590E+06    3.6948006E-07    8.1555131E+06
   -0.39   700.000   -1.239E+00    8.1338636E+06    1.2034959E-07    1.2282933E-07    8.1338636E+06    3.6827011E-07    8.1425392E+06
   -0.38   700.000   -1.253E+00    8.1177932E+06    1.1959061E-07    1.2206518E-07    8.1177932E+06    3.6756308E-07    8.1274318E+06
   -0.37   700.000   -1.267E+00    8.0996446E+06    1.1902215E-07    1.2149480E-07    8.0996446E+06    3.6736409E-07    8.1102722E+06
   -0.36   700.000   -1.281E+00    8.0795503E+06    1.1864559E-07    1.2111973E-07    8.0795503E+06    3.6766095E-07    8.0911739E+06
   -0.35   700.000   -1.294E+00    8.0576888E+06    1.1845620E-07    1.2093541E-07    8.0576888E+06    3.6842510E-07    8.0702942E+06
   -0.34   700.000   -1.308E+00    8.0342858E+06    1.1844337E-07    1.2093141E-07    8.0342858E+06    3.6961339E-07    8.0478355E+06
   -0.33   700.000   -1.322E+00    8.0096033E+06    1.1859111E-07    1.2109195E-07    8.0096033E+06    3.7117001E-07    8.0240367E+06
   -0.32   700.000   -1.335E+00    7.9839211E+06    1.1887863E-07    1.2139645E-07    7.9839211E+06    3.7302866E-07    7.9991558E+06
   -0.31   700.000   -1.349E+00    7.9575131E+06    1.1928115E-07    1.2182038E-07    7.9575131E+06    3.7511481E-07    7.9734479E+06
   -0.30   700.000   -1.362E+00    7.9306235E+06    1.1977089E-07    1.2233618E-07    7.9306235E+06    3.7734815E-07    7.9471424E+06
   -0.29   700.000   -1.375E+00    7.9034464E+06    1.2031814E-07    1.2291442E-07    7.9034464E+06    3.7964512E-07    7.9204239E+06
   -0.28   700.000   -1.389E+00    7.8761124E+06    1.2089252E-07    1.2352500E-07    7.8761124E+06    3.8192148E-07    7.8934188E+06
   -0.27   700.000   -1.402E+00    7.8486845E+06    1.2146415E-07    1.2413829E-07    7.8486845E+06    3.8409463E-07    7.8661912E+06
   -0.26   700.000   -1.415E+00    7.8211631E+06    1.2200466E-07    1.2472611E-07    7.8211631E+06    3.8608560E-07    7.8387473E+06
   -0.25   700.000   -1.428E+00    7.7935014E+06    1.2248787E-07    1.2526240E-07    7.7935014E+06    3.8782065E-07    7.8110501E+06
   -0.24   700.000   -1.442E+00    7.7656288E+06    1.2289031E-07    1.2572361E-07    7.7656288E+06    3.8923252E-07    7.7830413E+06
   -0.23   700.000   -1.455E+00    7.7374788E+06    1.2319135E-07    1.2608891E-07    7.7374788E+06    3.9026176E-07    7.7546687E+06
   -0.22   700.000   -1.468E+00    7.7090193E+06    1.2337327E-07    1.2634017E-07    7.7090193E+06    3.9085799E-07    7.7259147E+06
   -0.21   700.000   -1.481E+00    7.6802759E+06    1.2342115E-07    1.2646195E-07    7.6802759E+06    3.9098138E-07    7.6968196E+06
   -0.20   700.000   -1.495E+00    7.6513474E+06    1.2332276E-07    1.2644143E-07    7.6513474E+06    3.9060376E-07    7.6674958E+06
   -0.19   700.000   -1.508E+00    7.6224052E+06    1.2306834E-07    1.2626824E-07    7.6224052E+06    3.8970930E-07    7.6381270E+06
   -0.18   700.000   -1.522E+00    7.5936772E+06    1.2265032E-07    1.2593427E-07    7.5936772E+06    3.8829401E-07    7.6089516E+06
   -0.17   700.000   -1.536E+00    7.5654161E+06    1.2206296E-07    1.2543330E-07    7.5654161E+06    3.8636422E-07    7.5802315E+06
   -0.16   700.000   -1.550E+00    7.5378585E+06    1.2130193E-07    1.2476061E-07    7.5378585E+06    3.8393404E-07    7.5522104E+06
   -0.15   700.000   -1.564E+00    7.5111821E+06    1.2036402E-07    1.2391257E-07    7.5111821E+06    3.8102242E-07    7.5250717E+06
   -0.14   700.000   -1.578E+00    7.4854711E+06    1.1924713E-07    1.2288655E-07    7.4854711E+06    3.7765069E-07    7.4989040E+06
   -0.13   700.000   -1.593E+00    7.4606989E+06    1.1795062E-07    1.2168123E-07    7.4606989E+06    3.7384144E-07    7.4736835E+06
   -0.12   700.000   -1.607E+00    7.4367336E+06    1.1647631E-07    1.2029738E-07    7.4367336E+06    3.6961951E-07    7.4492807E+06
   -0.11   700.000   -1.622E+00    7.4133683E+06    1.1482994E-07    1.1873938E-07    7.4133683E+06    3.6501511E-07    7.4254897E+06
   -0.10   700.000   -1.638E+00    7.3903699E+06    1.1302303E-07    1.1701699E-07    7.3903699E+06    3.6006879E-07    7.4020781E+06
   -0.09   700.000   -1.653E+00    7.3675388E+06    1.1107471E-07    1.1514728E-07    7.3675388E+06    3.5483706E-07    7.3788467E+06
   -0.08   700.000   -1.669E+00    7.3447669E+06    1.0901318E-07    1.1315620E-07    7.3447669E+06    3.4939735E-07    7.3556873E+06
   -0.07   700.000   -1.685E+00    7.3220807E+06    1.0687643E-07    1.1107949E-07    7.3220807E+06    3.4385121E-07    7.3326261E+06
   -0.06   700.000   -1.701E+00    7.2996634E+06    1.0471208E-07    1.0896270E-07    7.2996634E+06    3.3832493E-07    7.3098459E+06
   -0.05   700.000   -1.718E+00    7.2778492E+06    1.0257638E-07    1.0686036E-07    7.2778492E+06    3.3296771E-07    7.2876803E+06
   -0.04   700.000   -1.735E+00    7.2570945E+06    1.0053263E-07    1.0483457E-07    7.2570945E+06    3.2794797E-07    7.2665849E+06
   -0.03   700.000   -1.752E+00    7.2379301E+06    9.8649447E-08    1.0295334E-07    7.2379301E+06    3.2344887E-07    7.2470899E+06
   -0.02   700.000   -1.770E+00    7.2209044E+06    9.6999055E-08    1.0128889E-07    7.2209044E+06    3.1966385E-07    7.2297431E+06
   -0.01   700.000   -1.787E+00    7.2065287E+06    9.5655945E-08    9.9916300E-08    7.2065287E+06    3.1679289E-07    7.2150551E+06
    0.00   700.000   -1.805E+00    7.1952319E+06    9.4695829E-08    9.8912392E-08    7.1952319E+06    3.1503967E-07    7.2034546E+06
    0.01   700.000   -1.824E+00    7.1873338E+06    9.4194812E-08    9.8354779E-08    7.1873338E+06    3.1460919E-07    7.1952613E+06
    0.02   700.000   -1.842E+00    7.1830395E+06    9.4228580E-08    9.8320960E-08    7.1830395E+06    3.1570559E-07    7.1906805E+06
    0.03   700.000   -1.861E+00    7.1824566E+06    9.4871413E-08    9.8887215E-08    7.1824566E+06    3.1852963E-07    7.1898201E+06
    0.04   700.000   -1.880E+00    7.1856315E+06    9.6194827E-08    1.0012715E-07    7.1856315E+06    3.2327524E-07    7.1927271E+06
    0.05   700.000   -1.899E+00    7.1925982E+06    9.8265738E-08    1.0210977E-07    7.1925982E+06    3.3012488E-07    7.1994363E+06
    0.06   700.000   -1.918E+00    7.2034302E+06    1.0114404E-07    1.0489696E-07    7.2034302E+06    3.3924329E-07    7.2100220E+06
    0.07   700.000   -1.937E+00    7.2182842E+06    1.0487950E-07    1.0854036E-07    7.2182842E+06    3.5076921E-07    7.2246419E+06
    0.08   700.000   -1.957E+00    7.2374268E+06    1.0950795E-07    1.1307742E-07    7.2374268E+06    3.6480485E-07    7.2435636E+06
    0.09   700.000   -1.976E+00    7.2612356E+06    1.1504679E-07    1.1852693E-07    7.2612356E+06    3.8140295E-07    7.2671655E+06
    0.10   700.000   -1.996E+00    7.2901710E+06    1.2148984E-07    1.2488384E-07    7.2901710E+06    4.0055179E-07    7.2959086E+06
    0.11   700.000   -2.016E+00    7.3247211E+06    1.2880210E-07    1.3211399E-07    7.3247211E+06    4.2215920E-07    7.3302812E+06
    0.12   700.000   -2.036E+00    7.3653230E+06    1.3691460E-07    1.4014905E-07    7.3653230E+06    4.4603698E-07    7.3707202E+06
    0.13   700.000   -2.056E+00    7.4122714E+06    1.4572054E-07    1.4888263E-07    7.4122714E+06    4.7188823E-07    7.4175194E+06
    0.14   700.000   -2.076E+00    7.4656241E+06    1.5507319E-07    1.5816832E-07    7.4656241E+06    4.9930026E-07    7.4707357E+06
    0.15   700.000   -2.096E+00    7.5251176E+06    1.6478682E-07    1.6782062E-07    7.5251176E+06    5.2774576E-07    7.5301046E+06
    0.16   700.000   -2.117E+00    7.5901039E+06    1.7464120E-07    1.7761948E-07    7.5901039E+06    5.5659460E-07    7.5949766E+06
    0.17   700.000   -2.138E+00    7.6595157E+06    1.8439003E-07    1.8731873E-07    7.6595157E+06    5.8513725E-07    7.6642837E+06
    0.18   700.000   -2.159E+00    7.7318655E+06    1.9377310E-07    1.9665823E-07    7.7318655E+06    6.1261908E-07    7.7365377E+06
    0.19   700.000   -2.181E+00    7.8052766E+06    2.0253116E-07    2.0537860E-07    7.8052766E+06    6.3828303E-07    7.8098616E+06
    0.20   700.000   -2.202E+00    7.8775398E+06    2.1042186E-07    2.1323711E-07    7.8775398E+06    6.6141580E-07    7.8820455E+06
# T(K) = 800.00   Npoints =     441   V(cm^3) =  3.848E-22
   -4.20   800.000    9.603E+00    7.2704473E+05    4.3579320E-08    4.3704578E-08    7.2704473E+05    1.0817861E-07    7.2740583E+05
   -4.19   800.000    9.557E+00    7.6173780E+05    4.7396021E-08    4.7530776E-08    7.6173780E+05    1.1767483E-07    7.6210442E+05
   -4.18   800.000    9.507E+00    7.9598907E+05    5.1390843E-08    5.1535262E-08    7.9598907E+05    1.2761062E-07    7.9636027E+05
   -4.17   800.000    9.453E+00    8.2963057E+05    5.5534259E-08    5.5688393E-08    8.2963057E+05    1.3791466E-07    8.3000549E+05
   -4.16   800.000    9.395E+00    8.6251303E+05    5.9788537E-08    5.9952313E-08    8.6251303E+05    1.4849630E-07    8.6289092E+05
   -4.15   800.000    9.333E+00    8.9451251E+05    6.4107901E-08    6.4281115E-08    8.9451251E+05    1.5924606E-07    8.9489268E+05
   -4.14   800.000    9.266E+00    9.2553747E+05    6.8439193E-08    6.8621514E-08    9.2553747E+05    1.7003727E-07    9.2591933E+05
   -4.13   800.000    9.194E+00    9.5553597E+05    7.2723118E-08    7.2914087E-08    9.5553597E+05    1.8072910E-07    9.5591898E+05
   -4.12   800.000    9.118E+00    9.8450243E+05    7.6896081E-08    7.7095126E-08    9.8450243E+05    1.9117100E-07    9.8488608E+05
   -4.11   800.000    9.037E+00    1.0124831E+06    8.0892599E-08    8.1099041E-08    1.0124831E+06    2.0120841E-07    1.0128669E+06
   -4.10   800.000    8.952E+00    1.0395795E+06    8.4648203E-08    8.4861274E-08    1.0395795E+06    2.1068965E-07    1.0399629E+06
   -4.09   800.000    8.862E+00    1.0659491E+06    8.8102683E-08    8.8321535E-08    1.0659491E+06    2.1947351E-07    1.0663316E+06
   -4.08   800.000    8.768E+00    1.0918019E+06    9.1203458E-08    9.1427180E-08    1.0918019E+06    2.2743706E-07    1.0921827E+06
   -4.07   800.000    8.670E+00    1.1173931E+06    9.3908803E-08    9.4136434E-08    1.1173931E+06    2.3448314E-07    1.1177714E+06
   -4.06   800.000    8.568E+00    1.1430117E+06    9.6190631E-08    9.6421164E-08    1.1430117E+06    2.4054668E-07    1.1433868E+06
   -4.05   800.000    8.463E+00    1.1689650E+06    9.8036500E-08    9.8268887E-08    1.1689650E+06    2.4559915E-07    1.1693356E+06
   -4.04   800.000    8.354E+00    1.1955598E+06    9.9450582E-08    9.9683733E-08    1.1955598E+06    2.4965070E-07    1.1959249E+06
   -4.03   800.000    8.243E+00    1.2230824E+06    1.0045339E-07    1.0068616E-07    1.2230824E+06    2.5274923E-07    1.2234406E+06
   -4.02   800.000    8.129E+00    1.2517782E+06    1.0108020E-07    1.0131140E-07    1.2517782E+06    2.5497655E-07    1.2521280E+06
   -4.01   800.000    8.013E+00    1.2818327E+06    1.0137827E-07    1.0160659E-07    1.2818327E+06    2.5644173E-07    1.2821726E+06
   -4.00   800.000    7.895E+00    1.3133558E+06    1.0140301E-07    1.0162709E-07    1.3133558E+06    2.5727212E-07    1.3136843E+06
   -3.99   800.000    7.775E+00    1.3463710E+06    1.0121364E-07    1.0143197E-07    1.3463710E+06    2.5760299E-07    1.3466866E+06
   -3.98   800.000    7.654E+00    1.3808096E+06    1.0086855E-07    1.0107951E-07    1.3808096E+06    2.5756678E-07    1.3811110E+06
   -3.97   800.000    7.532E+00    1.4165115E+06    1.0042106E-07    1.0062286E-07    1.4165115E+06    2.5728301E-07    1.4167974E+06
   -3.96   800.000    7.408E+00    1.4532311E+06    9.9915740E-08    1.0010648E-07    1.4532311E+06    2.5684979E-07    1.4535007E+06
   -3.95   800.000    7.284E+00    1.4906498E+06    9.9385870E-08    9.9563506E-08    1.4906498E+06    2.5633772E-07    1.4909023E+06
   -3.94   800.000    7.159E+00    1.5283917E+06    9.8851980E-08    9.9014366E-08    1.5283917E+06    2.5578653E-07    1.5286266E+06
   -3.93   800.000    7.034E+00    1.5660435E+06    9.8321633E-08    9.8466553E-08    1.5660435E+06    2.5520463E-07    1.5662607E+06
   -3.92   800.000    6.909E+00    1.6031759E+06    9.7790307E-08    9.7915515E-08    1.6031759E+06    2.5457118E-07    1.6033755E+06
   -3.91   800.000    6.783E+00    1.6393658E+06    9.7243161E-08    9.7346437E-08    1.6393658E+06    2.5384040E-07    1.6395482E+06
   -3.90   800.000    6.658E+00    1.6742176E+06    9.6657426E-08    9.6736630E-08    1.6742176E+06    2.5294738E-07    1.6743834E+06
   -3.89   800.000    6.533E+00    1.7073824E+06    9.6005128E-08    9.6058257E-08    1.7073824E+06    2.5181474E-07    1.7075323E+06
   -3.88   800.000    6.409E+00    1.7385742E+06    9.5255861E-08    9.5281103E-08    1.7385742E+06    2.5035946E-07    1.7387091E+06
   -3.87   800.000    6.286E+00    1.7675820E+06    9.4379396E-08    9.4375175E-08    1.7675820E+06    2.4849940E-07    1.7677028E+06
   -3.86   800.000    6.165E+00    1.7942776E+06    9.3347957E-08    9.3312969E-08    1.7942776E+06    2.4615901E-07    1.7943853E+06
   -3.85   800.000    6.045E+00    1.8186183E+06    9.2138064E-08    9.2071298E-08    1.8186183E+06    2.4327409E-07    1.8187141E+06
   -3.84   800.000    5.927E+00    1.8406460E+06    9.0731919E-08    9.0632666E-08    1.8406460E+06    2.3979541E-07    1.8407310E+06
   -3.83   800.000    5.811E+00    1.8604815E+06    8.9118330E-08    8.8986176E-08    1.8604815E+06    2.3569123E-07    1.8605565E+06
   -3.82   800.000    5.698E+00    1.8783156E+06    8.7293217E-08    8.7128025E-08    1.8783156E+06    2.3094881E-07    1.8783817E+06
   -3.81   800.000    5.588E+00    1.8943990E+06    8.5259748E-08    8.5061624E-08    1.8943990E+06    2.2557489E-07    1.8944572E+06
   -3.80   800.000    5.482E+00    1.9090298E+06    8.3028139E-08    8.2797395E-08    1.9090298E+06    2.1959543E-07    1.9090808E+06
   -3.79   800.000    5.378E+00    1.9225412E+06    8.0615169E-08    8.0352276E-08    1.9225412E+06    2.1305452E-07    1.9225859E+06
   -3.78   800.000    5.279E+00    1.9352893E+06    7.8043434E-08    7.7748974E-08    1.9352893E+06    2.0601256E-07    1.9353284E+06
   -3.77   800.000    5.183E+00    1.9476418E+06    7.5340373E-08    7.5014993E-08    1.9476418E+06    1.9854386E-07    1.9476759E+06
   -3.76   800.000    5.091E+00    1.9599670E+06    7.2537103E-08    7.2181479E-08    1.9599670E+06    1.9073369E-07    1.9599967E+06
   -3.75   800.000    5.004E+00    1.9726243E+06    6.9667124E-08    6.9281921E-08    1.9726243E+06    1.8267491E-07    1.9726502E+06
   -3.74   800.000    4.920E+00    1.9859555E+06    6.6764933E-08    6.6350793E-08    1.9859555E+06    1.7446435E-07    1.9859781E+06
   -3.73   800.000    4.841E+00    2.0002769E+06    6.3864661E-08    6.3422185E-08    2.0002769E+06    1.6619916E-07    2.0002965E+06
   -3.72   800.000    4.766E+00    2.0158720E+06    6.0998778E-08    6.0528534E-08    2.0158720E+06    1.5797338E-07    2.0158891E+06
   -3.71   800.000    4.695E+00    2.0329865E+06    5.8196989E-08    5.7699518E-08    2.0329865E+06    1.4987479E-07    2.0330013E+06
   -3.70   800.000    4.628E+00    2.0518234E+06    5.5485349E-08    5.4961186E-08    2.0518234E+06    1.4198249E-07    2.0518363E+06
   -3.69   800.000    4.565E+00    2.0725408E+06    5.2885678E-08    5.2335377E-08    2.0725408E+06    1.3436503E-07    2.0725520E+06
   -3.68   800.000    4.506E+00    2.0952507E+06    5.0415281E-08    4.9839434E-08    2.0952507E+06    1.2707934E-07    2.0952604E+06
   -3.67   800.000    4.450E+00    2.1200197E+06    4.8086955E-08    4.7486212E-08    2.1200197E+06    1.2017043E-07    2.1200281E+06
   -3.66   800.000    4.398E+00    2.1468719E+06    4.5909259E-08    4.5284348E-08    2.1468719E+06    1.1367160E-07    2.1468792E+06
   -3.65   800.000    4.349E+00    2.1757915E+06    4.3886982E-08    4.3238712E-08    2.1757915E+06    1.0760527E-07    2.1757978E+06
   -3.64   800.000    4.302E+00    2.2067282E+06    4.2021743E-08    4.1351004E-08    2.2067282E+06    1.0198409E-07    2.2067337E+06
   -3.63   800.000    4.259E+00    2.2396012E+06    4.0312646E-08    3.9620400E-08    2.2396012E+06    9.6812317E-08    2.2396060E+06
   -3.62   800.000    4.218E+00    2.2743046E+06    3.8756929E-08    3.8044194E-08    2.2743046E+06    9.2087227E-08    2.2743087E+06
   -3.61   800.000    4.179E+00    2.3107118E+06    3.7350561E-08    3.6618390E-08    2.3107118E+06    8.7800494E-08    2.3107153E+06
   -3.60   800.000    4.142E+00    2.3486796E+06    3.6088723E-08    3.5338179E-08    2.3486796E+06    8.3939453E-08    2.3486827E+06
   -3.59   800.000    4.107E+00    2.3880526E+06    3.4966176E-08    3.4198302E-08    2.3880526E+06    8.0488186E-08    2.3880553E+06
   -3.58   800.000    4.073E+00    2.4286658E+06    3.3977484E-08    3.3193279E-08    2.4286658E+06    7.7428377E-08    2.4286681E+06
   -3.57   800.000    4.041E+00    2.4703477E+06    3.3117113E-08    3.2317511E-08    2.4703477E+06    7.4739962E-08    2.4703497E+06
   -3.56   800.000    4.010E+00    2.5129225E+06    3.2379430E-08    3.1565272E-08    2.5129225E+06    7.2401568E-08    2.5129242E+06
   -3.55   800.000    3.981E+00    2.5562117E+06    3.1758614E-08    3.0930637E-08    2.5562117E+06    7.0390790E-08    2.5562132E+06
   -3.54   800.000    3.952E+00    2.6000361E+06    3.1248539E-08    3.0407360E-08    2.6000361E+06    6.8684347E-08    2.6000374E+06
   -3.53   800.000    3.924E+00    2.6442169E+06    3.0842637E-08    2.9988748E-08    2.6442169E+06    6.7258184E-08    2.6442180E+06
   -3.52   800.000    3.897E+00    2.6885776E+06    3.0533789E-08    2.9667553E-08    2.6885776E+06    6.6087533E-08    2.6885786E+06
   -3.51   800.000    3.870E+00    2.7329460E+06    3.0314239E-08    2.9435894E-08    2.7329460E+06    6.5147001E-08    2.7329469E+06
   -3.50   800.000    3.843E+00    2.7771570E+06    3.0175563E-08    2.9285229E-08    2.7771570E+06    6.4410679E-08    2.7771578E+06
   -3.49   800.000    3.817E+00    2.8210554E+06    3.0108677E-08    2.9206362E-08    2.8210554E+06    6.3852282E-08    2.8210561E+06
   -3.48   800.000    3.791E+00    2.8644987E+06    3.0103874E-08    2.9189491E-08    2.8644987E+06    6.3445346E-08    2.8644993E+06
   -3.47   800.000    3.766E+00    2.9073606E+06    3.0150921E-08    2.9224297E-08    2.9073606E+06    6.3163451E-08    2.9073612E+06
   -3.46   800.000    3.740E+00    2.9495329E+06    3.0239168E-08    2.9300056E-08    2.9495329E+06    6.2980507E-08    2.9495334E+06
   -3.45   800.000    3.714E+00    2.9909270E+06    3.0357703E-08    2.9405796E-08    2.9909270E+06    6.2871079E-08    2.9909275E+06
   -3.44   800.000    3.688E+00    3.0314738E+06    3.0495547E-08    2.9530483E-08    3.0314738E+06    6.2810781E-08    3.0314743E+06
   -3.43   800.000    3.663E+00    3.0711234E+06    3.0641867E-08    2.9663245E-08    3.0711234E+06    6.2776686E-08    3.0711239E+06
   -3.42   800.000    3.636E+00    3.1098428E+06    3.0786236E-08    2.9793615E-08    3.1098428E+06    6.2747771E-08    3.1098433E+06
   -3.41   800.000    3.610E+00    3.1476139E+06    3.0918888E-08    2.9911799E-08    3.1476139E+06    6.2705315E-08    3.1476143E+06
   -3.40   800.000    3.584E+00    3.1844303E+06    3.1030980E-08    3.0008930E-08    3.1844303E+06    6.2633228E-08    3.1844308E+06
   -3.39   800.000    3.557E+00    3.2202952E+06    3.1114826E-08    3.0077309E-08    3.2202952E+06    6.2518258E-08    3.2202957E+06
   -3.38   800.000    3.530E+00    3.2552174E+06    3.1164079E-08    3.0110587E-08    3.2552174E+06    6.2350054E-08    3.2552180E+06
   -3.37   800.000    3.502E+00    3.2892090E+06    3.1173858E-08    3.0103900E-08    3.2892090E+06    6.2121083E-08    3.2892095E+06
   -3.36   800.000    3.475E+00    3.3222811E+06    3.1140811E-08    3.0053932E-08    3.3222811E+06    6.1826420E-08    3.3222817E+06
   -3.35   800.000    3.447E+00    3.3544413E+06    3.1063104E-08    2.9958916E-08    3.3544413E+06    6.1463473E-08    3.3544420E+06
   -3.34   800.000    3.418E+00    3.3856900E+06    3.0940374E-08    2.9818583E-08    3.3856900E+06    6.1031687E-08    3.3856907E+06
   -3.33   800.000    3.390E+00    3.4160174E+06    3.0773626E-08    2.9634068E-08    3.4160174E+06    6.0532276E-08    3.4160182E+06
   -3.32   800.000    3.361E+00    3.4454023E+06    3.0565118E-08    2.9407792E-08    3.4454023E+06    5.9968027E-08    3.4454033E+06
   -3.31   800.000    3.331E+00    3.4738110E+06    3.0318219E-08    2.9143319E-08    3.4738110E+06    5.9343168E-08    3.4738121E+06
   -3.30   800.000    3.302E+00    3.5011981E+06    3.0037262E-08    2.8845201E-08    3.5011981E+06    5.8663289E-08    3.5011994E+06
   -3.29   800.000    3.272E+00    3.5275089E+06    2.9727377E-08    2.8518804E-08    3.5275089E+06    5.7935277E-08    3.5275104E+06
   -3.28   800.000    3.242E+00    3.5526819E+06    2.9394305E-08    2.8170109E-08    3.5526819E+06    5.7167230E-08    3.5526836E+06
   -3.27   800.000    3.212E+00    3.5766523E+06    2.9044189E-08    2.7805488E-08    3.5766523E+06    5.6368311E-08    3.5766543E+06
   -3.26   800.000    3.181E+00    3.5993559E+06    2.8683342E-08    2.7431464E-08    3.5993559E+06    5.5548535E-08    3.5993581E+06
   -3.25   800.000    3.150E+00    3.6207312E+06    2.8318009E-08    2.7054454E-08    3.6207312E+06    5.4718500E-08    3.6207338E+06
   -3.24   800.000    3.119E+00    3.6407226E+06    2.7954126E-08    2.6680520E-08    3.6407226E+06    5.3889074E-08    3.6407255E+06
   -3.23   800.000    3.088E+00    3.6592814E+06    2.7597099E-08    2.6315145E-08    3.6592814E+06    5.3071092E-08    3.6592848E+06
   -3.22   800.000    3.057E+00    3.6763680E+06    2.7251631E-08    2.5963048E-08    3.6763680E+06    5.2275084E-08    3.6763720E+06
   -3.21   800.000    3.025E+00    3.6919538E+06    2.6921594E-08    2.5628067E-08    3.6919538E+06    5.1511057E-08    3.6919583E+06
   -3.20   800.000    2.993E+00    3.7060230E+06    2.6609979E-08    2.5313102E-08    3.7060230E+06    5.0788361E-08    3.7060282E+06
   -3.19   800.000    2.961E+00    3.7185761E+06    2.6318898E-08    2.5020131E-08    3.7185761E+06    5.0115605E-08    3.7185822E+06
   -3.18   800.000    2.929E+00    3.7296334E+06    2.6049651E-08    2.4750284E-08    3.7296334E+06    4.9500643E-08    3.7296404E+06
   -3.17   800.000    2.896E+00    3.7392378E+06    2.5802837E-08    2.4503959E-08    3.7392378E+06    4.8950577E-08    3.7392459E+06
   -3.16   800.000    2.863E+00    3.7474580E+06    2.5578488E-08    2.4280972E-08    3.7474580E+06    4.8471777E-08    3.7474674E+06
   -3.15   800.000    2.830E+00    3.7543893E+06    2.5376213E-08    2.4080707E-08    3.7543893E+06    4.8069891E-08    3.7544000E+06
   -3.14   800.000    2.796E+00    3.7601524E+06    2.5195333E-08    2.3902262E-08    3.7601524E+06    4.7749836E-08    3.7601648E+06
   -3.13   800.000    2.761E+00    3.7648909E+06    2.5034991E-08    2.3744565E-08    3.7648909E+06    4.7515759E-08    3.7649053E+06
   -3.12   800.000    2.726E+00    3.7687652E+06    2.4894232E-08    2.3606463E-08    3.7687652E+06    4.7370982E-08    3.7687818E+06
   -3.11   800.000    2.690E+00    3.7719450E+06    2.4772046E-08    2.3486771E-08    3.7719450E+06    4.7317914E-08    3.7719642E+06
   -3.10   800.000    2.653E+00    3.7746008E+06    2.4667386E-08    2.3384293E-08    3.7746008E+06    4.7357962E-08    3.7746229E+06
   -3.09   800.000    2.616E+00    3.7768937E+06    2.4579158E-08    2.3297812E-08    3.7768937E+06    4.7491438E-08    3.7769191E+06
   -3.08   800.000    2.577E+00    3.7789657E+06    2.4506202E-08    2.3226076E-08    3.7789657E+06    4.7717472E-08    3.7789950E+06
   -3.07   800.000    2.537E+00    3.7809300E+06    2.4447269E-08    2.3167776E-08    3.7809300E+06    4.8033943E-08    3.7809639E+06
   -3.06   800.000    2.497E+00    3.7828621E+06    2.4401006E-08    2.3121524E-08    3.7828621E+06    4.8437433E-08    3.7829012E+06
   -3.05   800.000    2.454E+00    3.7847914E+06    2.4365950E-08    2.3085850E-08    3.7847914E+06    4.8923189E-08    3.7848365E+06
   -3.04   800.000    2.411E+00    3.7866948E+06    2.4340520E-08    2.3059190E-08    3.7866948E+06    4.9485094E-08    3.7867467E+06
   -3.03   800.000    2.366E+00    3.7884912E+06    2.4323016E-08    2.3039880E-08    3.7884912E+06    5.0115627E-08    3.7885510E+06
   -3.02   800.000    2.319E+00    3.7900393E+06    2.4311593E-08    2.3026131E-08    3.7900393E+06    5.0805799E-08    3.7901081E+06
   -3.01   800.000    2.271E+00    3.7911374E+06    2.4304222E-08    2.3015984E-08    3.7911374E+06    5.1545066E-08    3.7912165E+06
   -3.00   800.000    2.221E+00    3.7915263E+06    2.4298623E-08    2.3007240E-08    3.7915263E+06    5.2321217E-08    3.7916172E+06
   -2.99   800.000    2.169E+00    3.7908969E+06    2.4292181E-08    2.2997374E-08    3.7908969E+06    5.3120251E-08    3.7910013E+06
   -2.98   800.000    2.116E+00    3.7888998E+06    2.4281853E-08    2.2983441E-08    3.7888998E+06    5.3926296E-08    3.7890195E+06
   -2.97   800.000    2.061E+00    3.7851589E+06    2.4264095E-08    2.2961993E-08    3.7851589E+06    5.4721582E-08    3.7852960E+06
   -2.96   800.000    2.004E+00    3.7792865E+06    2.4234815E-08    2.2929036E-08    3.7792865E+06    5.5486533E-08    3.7794435E+06
   -2.95   800.000    1.946E+00    3.7708992E+06    2.4189382E-08    2.2880034E-08    3.7708992E+06    5.6199996E-08    3.7710786E+06
   -2.94   800.000    1.886E+00    3.7596336E+06    2.4122696E-08    2.2809976E-08    3.7596336E+06    5.6839640E-08    3.7598382E+06
   -2.93   800.000    1.825E+00    3.7451598E+06    2.4029320E-08    2.2713507E-08    3.7451598E+06    5.7382519E-08    3.7453928E+06
   -2.92   800.000    1.763E+00    3.7271932E+06    2.3903674E-08    2.2585127E-08    3.7271932E+06    5.7805782E-08    3.7274579E+06
   -2.91   800.000    1.700E+00    3.7055023E+06    2.3740272E-08    2.2419423E-08    3.7055023E+06    5.8087498E-08    3.7058025E+06
   -2.90   800.000    1.636E+00    3.6799149E+06    2.3533982E-08    2.2211335E-08    3.6799149E+06    5.8207541E-08    3.6802544E+06
   -2.89   800.000    1.571E+00    3.6503196E+06    2.3280297E-08    2.1956423E-08    3.6503196E+06    5.8148466E-08    3.6507026E+06
   -2.88   800.000    1.507E+00    3.6166669E+06    2.2975580E-08    2.1651122E-08    3.6166669E+06    5.7896320E-08    3.6170975E+06
   -2.87   800.000    1.442E+00    3.5789670E+06    2.2617286E-08    2.1292954E-08    3.5789670E+06    5.7441331E-08    3.5794497E+06
   -2.86   800.000    1.378E+00    3.5372868E+06    2.2204119E-08    2.0880694E-08    3.5372868E+06    5.6778407E-08    3.5378259E+06
   -2.85   800.000    1.314E+00    3.4917457E+06    2.1736143E-08    2.0414473E-08    3.4917457E+06    5.5907427E-08    3.4923457E+06
   -2.84   800.000    1.251E+00    3.4425103E+06    2.1214814E-08    1.9895814E-08    3.4425103E+06    5.4833299E-08    3.4431754E+06
   -2.83   800.000    1.190E+00    3.3897876E+06    2.0642947E-08    1.9327594E-08    3.3897876E+06    5.3565783E-08    3.3905219E+06
   -2.82   800.000    1.129E+00    3.3338186E+06    2.0024616E-08    1.8713944E-08    3.3338186E+06    5.2119097E-08    3.3346257E+06
   -2.81   800.000    1.071E+00    3.2748695E+06    1.9364992E-08    1.8060085E-08    3.2748695E+06    5.0511337E-08    3.2757528E+06
   -2.80   800.000    1.014E+00    3.2132235E+06    1.8670133E-08    1.7372121E-08    3.2132235E+06    4.8763744E-08    3.2141859E+06
   -2.79   800.000    9.588E-01    3.1491729E+06    1.7946741E-08    1.6656793E-08    3.1491729E+06    4.6899874E-08    3.1502165E+06
   -2.78   800.000    9.059E-01    3.0830102E+06    1.7201903E-08    1.5921218E-08    3.0830102E+06    4.4944705E-08    3.0841369E+06
   -2.77   800.000    8.552E-01    3.0150222E+06    1.6442822E-08    1.5172626E-08    3.0150222E+06    4.2923744E-08    3.0162330E+06
   -2.76   800.000    8.068E-01    2.9454836E+06    1.5676579E-08    1.4418114E-08    2.9454836E+06    4.0862178E-08    2.9467790E+06
   -2.75   800.000    7.606E-01    2.8746532E+06    1.4909905E-08    1.3664426E-08    2.8746532E+06    3.8784097E-08    2.8760331E+06
   -2.74   800.000    7.167E-01    2.8027713E+06    1.4149010E-08    1.2917774E-08    2.8027713E+06    3.6711842E-08    2.8042349E+06
   -2.73   800.000    6.750E-01    2.7300579E+06    1.3399438E-08    1.2183700E-08    2.7300579E+06    3.4665481E-08    2.7316039E+06
   -2.72   800.000    6.354E-01    2.6567126E+06    1.2665982E-08    1.1466988E-08    2.6567126E+06    3.2662444E-08    2.6583393E+06
   -2.71   800.000    5.980E-01    2.5829148E+06    1.1952634E-08    1.0771612E-08    2.5829148E+06    3.0717299E-08    2.5846199E+06
   -2.70   800.000    5.627E-01    2.5088245E+06    1.1262568E-08    1.0100726E-08    2.5088245E+06    2.8841673E-08    2.5106055E+06
   -2.69   800.000    5.293E-01    2.4345837E+06    1.0598169E-08    9.4566894E-09    2.4345837E+06    2.7044302E-08    2.4364377E+06
   -2.68   800.000    4.978E-01    2.3603179E+06    9.9610775E-09    8.8411157E-09    2.3603179E+06    2.5331191E-08    2.3622415E+06
   -2.67   800.000    4.681E-01    2.2861375E+06    9.3522599E-09    8.2549404E-09    2.2861375E+06    2.3705851E-08    2.2881274E+06
   -2.66   800.000    4.401E-01    2.2121404E+06    8.7720936E-09    7.6985090E-09    2.2121404E+06    2.2169610E-08    2.2141929E+06
   -2.65   800.000    4.137E-01    2.1384138E+06    8.2204649E-09    7.1716741E-09    2.1384138E+06    2.0721954E-08    2.1405250E+06
   -2.64   800.000    3.888E-01    2.0650358E+06    7.6968717E-09    6.6738978E-09    2.0650358E+06    1.9360885E-08    2.0672019E+06
   -2.63   800.000    3.653E-01    1.9920777E+06    7.2005268E-09    6.2043540E-09    1.9920777E+06    1.8083284E-08    1.9942945E+06
   -2.62   800.000    3.431E-01    1.9196055E+06    6.7304559E-09    5.7620254E-09    1.9196055E+06    1.6885241E-08    1.9218688E+06
   -2.61   800.000    3.222E-01    1.8476804E+06    6.2855843E-09    5.3457891E-09    1.8476804E+06    1.5762352E-08    1.8499860E+06
   -2.60   800.000    3.024E-01    1.7763603E+06    5.8648084E-09    4.9544866E-09    1.7763603E+06    1.4709984E-08    1.7787038E+06
   -2.59   800.000    2.838E-01    1.7057001E+06    5.4670485E-09    4.5869745E-09    1.7057001E+06    1.3723473E-08    1.7080772E+06
   -2.58   800.000    2.661E-01    1.6357524E+06    5.0912820E-09    4.2421574E-09    1.6357524E+06    1.2798286E-08    1.6381586E+06
   -2.57   800.000    2.494E-01    1.5665680E+06    4.7365590E-09    3.9190015E-09    1.5665680E+06    1.1930136E-08    1.5689988E+06
   -2.56   800.000    2.336E-01    1.4981968E+06    4.4020019E-09    3.6165339E-09    1.4981968E+06    1.1115051E-08    1.5006477E+06
   -2.55   800.000    2.186E-01    1.4306887E+06    4.0867942E-09    3.3338315E-09    1.4306887E+06    1.0349411E-08    1.4331550E+06
   -2.54   800.000    2.045E-01    1.3640944E+06    3.7901632E-09    3.0700039E-09    1.3640944E+06    9.6299610E-09    1.3665714E+06
   -2.53   800.000    1.910E-01    1.2984665E+06    3.5113597E-09    2.8241761E-09    1.2984665E+06    8.9537957E-09    1.3009494E+06
   -2.52   800.000    1.783E-01    1.2338600E+06    3.2496410E-09    2.5954726E-09    1.2338600E+06    8.3183331E-09    1.2363438E+06
   -2.51   800.000    1.662E-01    1.1703331E+06    3.0042572E-09    2.3830082E-09    1.1703331E+06    7.7212754E-09    1.1728127E+06
   -2.50   800.000    1.548E-01    1.1079475E+06    2.7744439E-09    2.1858832E-09    1.1079475E+06    7.1605641E-09    1.1104176E+06
   -2.49   800.000    1.439E-01    1.0467685E+06    2.5594208E-09    2.0031864E-09    1.0467685E+06    6.6343316E-09    1.0492235E+06
   -2.48   800.000    1.337E-01    9.8686542E+05    2.3583958E-09    1.8340015E-09    9.8686542E+05    6.1408552E-09    9.8929931E+05
   -2.47   800.000    1.239E-01    9.2831088E+05    2.1705737E-09    1.6774193E-09    9.2831088E+05    5.6785138E-09    9.3071749E+05
   -2.46   800.000    1.147E-01    8.7118117E+05    1.9951680E-09    1.5325504E-09    8.7118117E+05    5.2457526E-09    8.7355403E+05
   -2.45   800.000    1.060E-01    8.1555573E+05    1.8314141E-09    1.3985399E-09    8.1555573E+05    4.8410563E-09    8.1788811E+05
   -2.44   800.000    9.769E-02    7.6151663E+05    1.6785826E-09    1.2745806E-09    7.6151663E+05    4.4629328E-09    7.6380162E+05
   -2.43   800.000    8.990E-02    7.0914786E+05    1.5359919E-09    1.1599248E-09    7.0914786E+05    4.1099074E-09    7.1137848E+05
   -2.42   800.000    8.254E-02    6.5853432E+05    1.4030169E-09    1.0538922E-09    6.5853432E+05    3.7805273E-09    6.6070359E+05
   -2.41   800.000    7.562E-02    6.0976043E+05    1.2790954E-09    9.5587474E-10    6.0976043E+05    3.4733734E-09    6.1186155E+05
   -2.40   800.000    6.911E-02    5.6290850E+05    1.1637291E-09    8.6533637E-10    5.6290850E+05    3.1870777E-09    5.6493496E+05
   -2.39   800.000    6.300E-02    5.1805675E+05    1.0564816E-09    7.8180931E-10    5.1805675E+05    2.9203429E-09    5.2000250E+05
   -2.38   800.000    5.729E-02    4.7527708E+05    9.5697119E-10    7.0488661E-10    4.7527708E+05    2.6719607E-09    4.7713667E+05
   -2.37   800.000    5.196E-02    4.3463277E+05    8.6486196E-10    6.3421209E-10    4.3463277E+05    2.4408271E-09    4.3640148E+05
   -2.36   800.000    4.699E-02    3.9617610E+05    7.7985251E-10    5.6946926E-10    3.9617610E+05    2.2259515E-09    3.9785006E+05
   -2.35   800.000    4.239E-02    3.5994608E+05    7.0166461E-10    5.1037005E-10    3.5994608E+05    2.0264593E-09    3.6152239E+05
   -2.34   800.000    3.813E-02    3.2596654E+05    6.3003268E-10    4.5664481E-10    3.2596654E+05    1.8415879E-09    3.2744331E+05
   -2.33   800.000    3.421E-02    2.9424452E+05    5.6469511E-10    4.0803425E-10    2.9424452E+05    1.6706763E-09    2.9562093E+05
   -2.32   800.000    3.061E-02    2.6476928E+05    5.0538816E-10    3.6428399E-10    2.6476928E+05    1.5131507E-09    2.6604557E+05
   -2.31   800.000    2.731E-02    2.3751191E+05    4.5184258E-10    3.2514160E-10    2.3751191E+05    1.3685072E-09    2.3868936E+05
   -2.30   800.000    2.431E-02    2.1242561E+05    4.0378290E-10    2.9035616E-10    2.1242561E+05    1.2362940E-09    2.1350646E+05
   -2.29   800.000    2.158E-02    1.8944670E+05    3.6092906E-10    2.5967986E-10    1.8944670E+05    1.1160945E-09    1.9043404E+05
   -2.28   800.000    1.911E-02    1.6849613E+05    3.2299988E-10    2.3287103E-10    1.6849613E+05    1.0075148E-09    1.6939382E+05
   -2.27   800.000    1.689E-02    1.4948167E+05    2.8971783E-10    2.0969816E-10    1.4948167E+05    9.1017361E-10    1.5029420E+05
   -2.26   800.000    1.489E-02    1.3230037E+05    2.6081444E-10    1.8994439E-10    1.3230037E+05    8.2369880E-10    1.3303267E+05
   -2.25   800.000    1.310E-02    1.1684123E+05    2.3603605E-10    1.7341204E-10    1.1684123E+05    7.4772738E-10    1.1749856E+05
   -2.24   800.000    1.150E-02    1.0298800E+05    2.1514952E-10    1.5992697E-10    1.0298800E+05    6.8191064E-10    1.0357583E+05
   -2.23   800.000    1.008E-02    9.0621866E+04    1.9794748E-10    1.4934263E-10    9.0621866E+04    6.2592281E-10    9.1145700E+04
   -2.22   800.000    8.823E-03    7.9623873E+04    1.8425334E-10    1.4154371E-10    7.9623873E+04    5.7947246E-10    8.0089178E+04
   -2.21   800.000    7.706E-03    6.9877137E+04    1.7392575E-10    1.3644949E-10    6.9877137E+04    5.4231583E-10    7.0289234E+04
   -2.20   800.000    6.719E-03    6.1268642E+04    1.6686267E-10    1.3401692E-10    6.1268642E+04    5.1427138E-10    6.1632636E+04
   -2.19   800.000    5.849E-03    5.3690695E+04    1.6300527E-10    1.3424374E-10    5.3690695E+04    4.9523486E-10    5.4011421E+04
   -2.18   800.000    5.082E-03    4.7042004E+04    1.6234162E-10    1.3717150E-10    4.7042004E+04    4.8519467E-10    4.7323986E+04
   -2.17   800.000    4.407E-03    4.1228422E+04    1.6491047E-10    1.4288897E-10    4.1228422E+04    4.8424743E-10    4.1475856E+04
   -2.16   800.000    3.814E-03    3.6163397E+04    1.7080531E-10    1.5153585E-10    3.6163397E+04    4.9261371E-10    3.6380134E+04
   -2.15   800.000    3.292E-03    3.1768166E+04    1.8017875E-10    1.6330709E-10    3.1768166E+04    5.1065429E-10    3.1957719E+04
   -2.14   800.000    2.833E-03    2.7971758E+04    1.9324763E-10    1.7845788E-10    2.7971758E+04    5.3888723E-10    2.8137308E+04
   -2.13   800.000    2.428E-03    2.4710846E+04    2.1029881E-10    1.9730957E-10    2.4710846E+04    5.7800618E-10    2.4855256E+04
   -2.12   800.000    2.071E-03    2.1929489E+04    2.3169591E-10    2.2025653E-10    2.1929489E+04    6.2890048E-10    2.2055323E+04
   -2.11   800.000    1.754E-03    1.9578815E+04    2.5788721E-10    2.4777417E-10    1.9578815E+04    6.9267737E-10    1.9688359E+04
   -2.10   800.000    1.472E-03    1.7616659E+04    2.8941475E-10    2.8042831E-10    1.7616659E+04    7.7068699E-10    1.7711943E+04
   -2.09   800.000    1.220E-03    1.6007203E+04    3.2692493E-10    3.1888588E-10    1.6007203E+04    8.6455052E-10    1.6090023E+04
   -2.08   800.000    9.919E-04    1.4720619E+04    3.7118054E-10    3.6392727E-10    1.4720619E+04    9.7619197E-10    1.4792559E+04
   -2.07   800.000    7.839E-04    1.3732744E+04    4.2307461E-10    4.1646027E-10    1.3732744E+04    1.1078740E-09    1.3795200E+04
   -2.06   800.000    5.919E-04    1.3024794E+04    4.8364603E-10    4.7753592E-10    1.3024794E+04    1.2622381E-09    1.3078989E+04
   -2.05   800.000    4.119E-04    1.2583118E+04    5.5409696E-10    5.4836609E-10    1.2583118E+04    1.4423494E-09    1.2630125E+04
   -2.04   800.000    2.405E-04    1.2399016E+04    6.3581231E-10    6.3034306E-10    1.2399016E+04    1.6517464E-09    1.2439774E+04
   -2.03   800.000    7.417E-05    1.2468595E+04    7.3038106E-10    7.2506093E-10    1.2468595E+04    1.8944948E-09    1.2503923E+04
   -2.02   800.000   -9.039E-05    1.2792695E+04    8.3961931E-10    8.3433880E-10    1.2792695E+04    2.1752467E-09    1.2823307E+04
   -2.01   800.000   -2.564E-04    1.3376856E+04    9.6559500E-10    9.6024548E-10    1.3376856E+04    2.4993024E-09    1.3403377E+04
   -2.00   800.000   -4.273E-04    1.4231345E+04    1.1106537E-09    1.1051254E-09    1.4231345E+04    2.8726759E-09    1.4254316E+04
   -1.99   800.000   -6.062E-04    1.5371220E+04    1.2774452E-09    1.2716250E-09    1.5371220E+04    3.3021606E-09    1.5391112E+04
   -1.98   800.000   -7.966E-04    1.6816438E+04    1.4689493E-09    1.4627186E-09    1.6816438E+04    3.7953941E-09    1.6833662E+04
   -1.97   800.000   -1.002E-03    1.8591990E+04    1.6885008E-09    1.6817335E-09    1.8591990E+04    4.3609186E-09    1.8606901E+04
   -1.96   800.000   -1.226E-03    2.0728047E+04    1.9398110E-09    1.9323710E-09    2.0728047E+04    5.0082319E-09    2.0740955E+04
   -1.95   800.000   -1.473E-03    2.3260118E+04    2.2269842E-09    2.2187229E-09    2.3260118E+04    5.7478252E-09    2.3271291E+04
   -1.94   800.000   -1.748E-03    2.6229180E+04    2.5545268E-09    2.5452810E-09    2.6229180E+04    6.5911988E-09    2.6238849E+04
   -1.93   800.000   -2.053E-03    2.9681773E+04    2.9273462E-09    2.9169346E-09    2.9681773E+04    7.5508497E-09    2.9690140E+04
   -1.92   800.000   -2.396E-03    3.3670029E+04    3.3507346E-09    3.3389555E-09    3.3670029E+04    8.6402207E-09    3.3677270E+04
   -1.91   800.000   -2.779E-03    3.8251611E+04    3.8303368E-09    3.8169644E-09    3.8251611E+04    9.8736003E-09    3.8257876E+04
   -1.90   800.000   -3.211E-03    4.3489524E+04    4.3720945E-09    4.3568757E-09    4.3489524E+04    1.1265965E-08    4.3494945E+04
   -1.89   800.000   -3.695E-03    4.9451783E+04    4.9821662E-09    4.9648171E-09    4.9451783E+04    1.2832747E-08    4.9456474E+04
   -1.88   800.000   -4.238E-03    5.6210903E+04    5.6668177E-09    5.6470196E-09    5.6210903E+04    1.4589535E-08    5.6214961E+04
   -1.87   800.000   -4.847E-03    6.3843192E+04    6.4322824E-09    6.4096780E-09    6.3843192E+04    1.6551675E-08    6.3846703E+04
   -1.86   800.000   -5.529E-03    7.2427849E+04    7.2845906E-09    7.2587796E-09    7.2427849E+04    1.8733802E-08    7.2430887E+04
   -1.85   800.000   -6.289E-03    8.2045863E+04    8.2293703E-09    8.1999059E-09    8.2045863E+04    2.1149291E-08    8.2048490E+04
   -1.84   800.000   -7.135E-03    9.2778727E+04    9.2716270E-09    9.2380120E-09    9.2778727E+04    2.3809648E-08    9.2781001E+04
   -1.83   800.000   -8.074E-03    1.0470703E+05    1.0415512E-08    1.0377195E-08    1.0470703E+05    2.6723881E-08    1.0470900E+05
   -1.82   800.000   -9.111E-03    1.1790896E+05    1.1664094E-08    1.1620467E-08    1.1790896E+05    2.9897880E-08    1.1791066E+05
   -1.81   800.000   -1.025E-02    1.3245877E+05    1.3019150E-08    1.2969547E-08    1.3245877E+05    3.3333864E-08    1.3246024E+05
   -1.80   800.000   -1.151E-02    1.4842532E+05    1.4481004E-08    1.4424700E-08    1.4842532E+05    3.7029971E-08    1.4842659E+05
   -1.79   800.000   -1.288E-02    1.6587077E+05    1.6048425E-08    1.5984634E-08    1.6587077E+05    4.0980028E-08    1.6587187E+05
   -1.78   800.000   -1.437E-02    1.8484943E+05    1.7718607E-08    1.7646483E-08    1.8484943E+05    4.5173576E-08    1.8485039E+05
   -1.77   800.000   -1.598E-02    2.0540689E+05    1.9487239E-08    1.9405883E-08    2.0540689E+05    4.9596175E-08    2.0540772E+05
   -1.76   800.000   -1.773E-02    2.2757943E+05    2.1348675E-08    2.1257132E-08    2.2757943E+05    5.4229992E-08    2.2758014E+05
   -1.75   800.000   -1.960E-02    2.5139373E+05    2.3296167E-08    2.3193438E-08    2.5139373E+05    5.9054619E-08    2.5139434E+05
   -1.74   800.000   -2.161E-02    2.7686691E+05    2.5322165E-08    2.5207209E-08    2.7686691E+05    6.4048056E-08    2.7686745E+05
   -1.73   800.000   -2.375E-02    3.0400683E+05    2.7418616E-08    2.7290366E-08    3.0400683E+05    6.9187706E-08    3.0400729E+05
   -1.72   800.000   -2.603E-02    3.3281257E+05    2.9577242E-08    2.9434615E-08    3.3281257E+05    7.4451278E-08    3.3281297E+05
   -1.71   800.000   -2.845E-02    3.6327522E+05    3.1789744E-08    3.1631668E-08    3.6327522E+05    7.9817440E-08    3.6327556E+05
   -1.70   800.000   -3.099E-02    3.9537869E+05    3.4047924E-08    3.3873356E-08    3.9537869E+05    8.5266162E-08    3.9537899E+05
   -1.69   800.000   -3.367E-02    4.2910070E+05    3.6343716E-08    3.6151679E-08    4.2910070E+05    9.0778743E-08    4.2910096E+05
   -1.68   800.000   -3.649E-02    4.6441374E+05    3.8669163E-08    3.8458780E-08    4.6441374E+05    9.6337598E-08    4.6441396E+05
   -1.67   800.000   -3.943E-02    5.0128604E+05    4.1016383E-08    4.0786922E-08    5.0128604E+05    1.0192596E-07    5.0128623E+05
   -1.66   800.000   -4.251E-02    5.3968253E+05    4.3377596E-08    4.3128516E-08    5.3968253E+05    1.0752772E-07    5.3968269E+05
   -1.65   800.000   -4.571E-02    5.7956568E+05    4.5745258E-08    4.5476255E-08    5.7956568E+05    1.1312753E-07    5.7956582E+05
   -1.64   800.000   -4.904E-02    6.2089633E+05    4.8112330E-08    4.7823389E-08    6.2089633E+05    1.1871133E-07    6.2089645E+05
   -1.63   800.000   -5.249E-02    6.6363441E+05    5.0472679E-08    5.0164119E-08    6.6363441E+05    1.2426734E-07    6.6363452E+05
   -1.62   800.000   -5.607E-02    7.0773960E+05    5.2821564E-08    5.2494076E-08    7.0773960E+05    1.2978728E-07    7.0773970E+05
   -1.61   800.000   -5.976E-02    7.5317192E+05    5.5156117E-08    5.4810792E-08    7.5317192E+05    1.3526775E-07    7.5317200E+05
   -1.60   800.000   -6.357E-02    7.9989221E+05    5.7475733E-08    5.7114080E-08    7.9989221E+05    1.4071140E-07    7.9989228E+05
   -1.59   800.000   -6.749E-02    8.4786255E+05    5.9782275E-08    5.9406224E-08    8.4786255E+05    1.4612766E-07    8.4786261E+05
   -1.58   800.000   -7.153E-02    8.9704654E+05    6.2080039E-08    6.1691923E-08    8.9704654E+05    1.5153286E-07    8.9704660E+05
   -1.57   800.000   -7.567E-02    9.4740942E+05    6.4375448E-08    6.3977975E-08    9.4740942E+05    1.5694951E-07    9.4740947E+05
   -1.56   800.000   -7.993E-02    9.9891804E+05    6.6676496E-08    6.6272703E-08    9.9891804E+05    1.6240494E-07    9.9891808E+05
   -1.55   800.000   -8.429E-02    1.0515407E+06    6.8992001E-08    6.8585199E-08    1.0515407E+06    1.6792925E-07    1.0515408E+06
   -1.54   800.000   -8.876E-02    1.1052470E+06    7.1330719E-08    7.0924435E-08    1.1052470E+06    1.7355269E-07    1.1052471E+06
   -1.53   800.000   -9.334E-02    1.1600074E+06    7.3700420E-08    7.3298339E-08    1.1600074E+06    1.7930295E-07    1.1600074E+06
   -1.52   800.000   -9.801E-02    1.2157927E+06    7.6106990E-08    7.5712907E-08    1.2157927E+06    1.8520222E-07    1.2157927E+06
   -1.51   800.000   -1.028E-01    1.2725745E+06    7.8553630E-08    7.8171404E-08    1.2725745E+06    1.9126455E-07    1.2725745E+06
   -1.50   800.000   -1.077E-01    1.3303242E+06    8.1040196E-08    8.0673730E-08    1.3303242E+06    1.9749352E-07    1.3303242E+06
   -1.49   800.000   -1.126E-01    1.3890139E+06    8.3562749E-08    8.3215972E-08    1.3890139E+06    2.0388053E-07    1.3890139E+06
   -1.48   800.000   -1.177E-01    1.4486160E+06    8.6113333E-08    8.5790194E-08    1.4486160E+06    2.1040389E-07    1.4486160E+06
   -1.47   800.000   -1.229E-01    1.5091036E+06    8.8680020E-08    8.8384490E-08    1.5091036E+06    2.1702879E-07    1.5091036E+06
   -1.46   800.000   -1.281E-01    1.5704509E+06    9.1247252E-08    9.0983326E-08    1.5704509E+06    2.2370830E-07    1.5704509E+06
   -1.45   800.000   -1.335E-01    1.6326327E+06    9.3796470E-08    9.3568164E-08    1.6326327E+06    2.3038547E-07    1.6326328E+06
   -1.44   800.000   -1.389E-01    1.6956250E+06    9.6307007E-08    9.6118356E-08    1.6956250E+06    2.3699620E-07    1.6956250E+06
   -1.43   800.000   -1.445E-01    1.7594039E+06    9.8757199E-08    9.8612245E-08    1.7594039E+06    2.4347298E-07    1.7594039E+06
   -1.42   800.000   -1.501E-01    1.8239460E+06    1.0112561E-07    1.0102839E-07    1.8239460E+06    2.4974881E-07    1.8239460E+06
   -1.41   800.000   -1.558E-01    1.8892271E+06    1.0339228E-07    1.0334679E-07    1.8892271E+06    2.5576126E-07    1.8892271E+06
   -1.40   800.000   -1.616E-01    1.9552228E+06    1.0553983E-07    1.0555004E-07    1.9552228E+06    2.6145594E-07    1.9552228E+06
   -1.39   800.000   -1.676E-01    2.0219075E+06    1.0755438E-07    1.0762417E-07    2.0219075E+06    2.6678938E-07    2.0219075E+06
   -1.38   800.000   -1.735E-01    2.0892550E+06    1.0942618E-07    1.0955934E-07    2.0892550E+06    2.7173083E-07    2.0892550E+06
   -1.37   800.000   -1.796E-01    2.1572384E+06    1.1114981E-07    1.1135001E-07    2.1572384E+06    2.7626309E-07    2.1572384E+06
   -1.36   800.000   -1.858E-01    2.2258310E+06    1.1272424E-07    1.1299498E-07    2.2258310E+06    2.8038236E-07    2.2258310E+06
   -1.35   800.000   -1.920E-01    2.2950060E+06    1.1415241E-07    1.1449701E-07    2.2950060E+06    2.8409732E-07    2.2950060E+06
   -1.34   800.000   -1.984E-01    2.3647379E+06    1.1544076E-07    1.1586232E-07    2.3647379E+06    2.8742752E-07    2.3647379E+06
   -1.33   800.000   -2.048E-01    2.4350020E+06    1.1659855E-07    1.1709986E-07    2.4350020E+06    2.9040143E-07    2.4350020E+06
   -1.32   800.000   -2.113E-01    2.5057755E+06    1.1763705E-07    1.1822063E-07    2.5057755E+06    2.9305407E-07    2.5057755E+06
   -1.31   800.000   -2.179E-01    2.5770370E+06    1.1856883E-07    1.1923683E-07    2.5770370E+06    2.9542456E-07    2.5770370E+06
   -1.30   800.000   -2.246E-01    2.6487674E+06    1.1940693E-07    1.2016111E-07    2.6487674E+06    2.9755345E-07    2.6487675E+06
   -1.29   800.000   -2.313E-01    2.7209493E+06    1.2016419E-07    1.2100588E-07    2.7209493E+06    2.9948007E-07    2.7209493E+06
   -1.28   800.000   -2.382E-01    2.7935671E+06    1.2085261E-07    1.2178269E-07    2.7935671E+06    3.0124005E-07    2.7935672E+06
   -1.27   800.000   -2.451E-01    2.8666070E+06    1.2148290E-07    1.2250178E-07    2.8666070E+06    3.0286317E-07    2.8666071E+06
   -1.26   800.000   -2.521E-01    2.9400564E+06    1.2206424E-07    1.2317182E-07    2.9400564E+06    3.0437176E-07    2.9400565E+06
   -1.25   800.000   -2.593E-01    3.0139040E+06    1.2260423E-07    1.2379985E-07    3.0139040E+06    3.0577993E-07    3.0139040E+06
   -1.24   800.000   -2.664E-01    3.0881388E+06    1.2310902E-07    1.2439147E-07    3.0881388E+06    3.0709371E-07    3.0881389E+06
   -1.23   800.000   -2.737E-01    3.1627509E+06    1.2358373E-07    1.2495121E-07    3.1627509E+06    3.0831215E-07    3.1627510E+06
   -1.22   800.000   -2.811E-01    3.2377303E+06    1.2403294E-07    1.2548307E-07    3.2377303E+06    3.0942941E-07    3.2377304E+06
   -1.21   800.000   -2.885E-01    3.3130672E+06    1.2446136E-07    1.2599117E-07    3.3130672E+06    3.1043760E-07    3.3130673E+06
   -1.20   800.000   -2.960E-01    3.3887519E+06    1.2487448E-07    1.2648045E-07    3.3887519E+06    3.1133015E-07    3.3887520E+06
   -1.19   800.000   -3.036E-01    3.4647750E+06    1.2527927E-07    1.2695739E-07    3.4647750E+06    3.1210541E-07    3.4647751E+06
   -1.18   800.000   -3.113E-01    3.5411272E+06    1.2568476E-07    1.2743056E-07    3.5411272E+06    3.1277005E-07    3.5411274E+06
   -1.17   800.000   -3.191E-01    3.6177996E+06    1.2610240E-07    1.2791102E-07    3.6177996E+06    3.1334184E-07    3.6177998E+06
   -1.16   800.000   -3.270E-01    3.6947839E+06    1.2654622E-07    1.2841252E-07    3.6947839E+06    3.1385157E-07    3.6947841E+06
   -1.15   800.000   -3.349E-01    3.7720725E+06    1.2703266E-07    1.2895124E-07    3.7720725E+06    3.1434355E-07    3.7720728E+06
   -1.14   800.000   -3.430E-01    3.8496584E+06    1.2758003E-07    1.2954532E-07    3.8496584E+06    3.1487476E-07    3.8496587E+06
   -1.13   800.000   -3.511E-01    3.9275351E+06    1.2820764E-07    1.3021396E-07    3.9275351E+06    3.1551248E-07    3.9275354E+06
   -1.12   800.000   -3.593E-01    4.0056962E+06    1.2893464E-07    1.3097626E-07    4.0056962E+06    3.1633065E-07    4.0056965E+06
   -1.11   800.000   -3.676E-01    4.0841346E+06    1.2977873E-07    1.3184993E-07    4.0841346E+06    3.1740516E-07    4.0841350E+06
   -1.10   800.000   -3.760E-01    4.1628419E+06    1.3075482E-07    1.3284998E-07    4.1628419E+06    3.1880877E-07    4.1628424E+06
   -1.09   800.000   -3.845E-01    4.2418073E+06    1.3187379E-07    1.3398748E-07    4.2418073E+06    3.2060594E-07    4.2418078E+06
   -1.08   800.000   -3.930E-01    4.3210168E+06    1.3314152E-07    1.3526861E-07    4.3210168E+06    3.2284815E-07    4.3210174E+06
   -1.07   800.000   -4.017E-01    4.4004530E+06    1.3455828E-07    1.3669402E-07    4.4004530E+06    3.2557017E-07    4.4004537E+06
   -1.06   800.000   -4.104E-01    4.4800941E+06    1.3611844E-07    1.3825855E-07    4.4800941E+06    3.2878756E-07    4.4800950E+06
   -1.05   800.000   -4.192E-01    4.5599147E+06    1.3781062E-07    1.3995135E-07    4.5599147E+06    3.3249553E-07    4.5599157E+06
   -1.04   800.000   -4.282E-01    4.6398858E+06    1.3961826E-07    1.4175639E-07    4.6398858E+06    3.3666933E-07    4.6398869E+06
   -1.03   800.000   -4.372E-01    4.7199754E+06    1.4152051E-07    1.4365331E-07    4.7199754E+06    3.4126611E-07    4.7199766E+06
   -1.02   800.000   -4.463E-01    4.8001499E+06    1.4349350E-07    1.4561862E-07    4.8001499E+06    3.4622811E-07    4.8001514E+06
   -1.01   800.000   -4.555E-01    4.8803754E+06    1.4551180E-07    1.4762717E-07    4.8803754E+06    3.5148704E-07    4.8803771E+06
   -1.00   800.000   -4.648E-01    4.9606187E+06    1.4755010E-07    1.4965374E-07    4.9606187E+06    3.5696926E-07    4.9606206E+06
   -0.99   800.000   -4.742E-01    5.0408491E+06    1.4958494E-07    1.5167481E-07    5.0408491E+06    3.6260146E-07    5.0408514E+06
   -0.98   800.000   -4.837E-01    5.1210402E+06    1.5159628E-07    1.5367012E-07    5.1210402E+06    3.6831608E-07    5.1210429E+06
   -0.97   800.000   -4.933E-01    5.2011704E+06    1.5356879E-07    1.5562400E-07    5.2011704E+06    3.7405611E-07    5.2011735E+06
   -0.96   800.000   -5.030E-01    5.2812238E+06    1.5549266E-07    1.5752624E-07    5.2812238E+06    3.7977860E-07    5.2812273E+06
   -0.95   800.000   -5.128E-01    5.3611900E+06    1.5736370E-07    1.5937231E-07    5.3611900E+06    3.8545632E-07    5.3611942E+06
   -0.94   800.000   -5.227E-01    5.4410632E+06    1.5918289E-07    1.6116285E-07    5.4410632E+06    3.9107748E-07    5.4410680E+06
   -0.93   800.000   -5.327E-01    5.5208397E+06    1.6095510E-07    1.6290261E-07    5.5208397E+06    3.9664334E-07    5.5208452E+06
   -0.92   800.000   -5.428E-01    5.6005161E+06    1.6268743E-07    1.6459870E-07    5.6005161E+06    4.0216425E-07    5.6005225E+06
   -0.91   800.000   -5.530E-01    5.6800864E+06    1.6438716E-07    1.6625864E-07    5.6800864E+06    4.0765438E-07    5.6800938E+06
   -0.90   800.000   -5.634E-01    5.7595398E+06    1.6605974E-07    1.6788836E-07    5.7595398E+06    4.1312617E-07    5.7595483E+06
   -0.89   800.000   -5.738E-01    5.8388591E+06    1.6770700E-07    1.6949037E-07    5.8388591E+06    4.1858510E-07    5.8388689E+06
   -0.88   800.000   -5.844E-01    5.9180199E+06    1.6932587E-07    1.7106247E-07    5.9180199E+06    4.2402554E-07    5.9180312E+06
   -0.87   800.000   -5.951E-01    5.9969905E+06    1.7090771E-07    1.7259704E-07    5.9969905E+06    4.2942814E-07    5.9970036E+06
   -0.86   800.000   -6.059E-01    6.0757323E+06    1.7243829E-07    1.7408103E-07    6.0757323E+06    4.3475903E-07    6.0757474E+06
   -0.85   800.000   -6.168E-01    6.1542000E+06    1.7389842E-07    1.7549649E-07    6.1542000E+06    4.3997074E-07    6.1542175E+06
   -0.84   800.000   -6.279E-01    6.2323422E+06    1.7526504E-07    1.7682169E-07    6.2323422E+06    4.4500475E-07    6.2323625E+06
   -0.83   800.000   -6.391E-01    6.3101008E+06    1.7651274E-07    1.7803256E-07    6.3101008E+06    4.4979512E-07    6.3101242E+06
   -0.82   800.000   -6.504E-01    6.3874104E+06    1.7761539E-07    1.7910432E-07    6.3874104E+06    4.5427288E-07    6.3874375E+06
   -0.81   800.000   -6.618E-01    6.4641977E+06    1.7854785E-07    1.8001311E-07    6.4641977E+06    4.5837058E-07    6.4642290E+06
   -0.80   800.000   -6.734E-01    6.5403806E+06    1.7928758E-07    1.8073762E-07    6.5403806E+06    4.6202665E-07    6.5404168E+06
   -0.79   800.000   -6.851E-01    6.6158682E+06    1.7981604E-07    1.8126035E-07    6.6158682E+06    4.6518917E-07    6.6159100E+06
   -0.78   800.000   -6.970E-01    6.6905612E+06    1.8011978E-07    1.8156870E-07    6.6905612E+06    4.6781874E-07    6.6906095E+06
   -0.77   800.000   -7.090E-01    6.7643539E+06    1.8019119E-07    1.8165561E-07    6.7643539E+06    4.6989033E-07    6.7644097E+06
   -0.76   800.000   -7.212E-01    6.8371368E+06    1.8002886E-07    1.8151989E-07    6.8371368E+06    4.7139402E-07    6.8372014E+06
   -0.75   800.000   -7.335E-01    6.9087997E+06    1.7963750E-07    1.8116604E-07    6.9087997E+06    4.7233464E-07    6.9088743E+06
   -0.74   800.000   -7.459E-01    6.9792349E+06    1.7902748E-07    1.8060377E-07    6.9792349E+06    4.7273038E-07    6.9793211E+06
   -0.73   800.000   -7.585E-01    7.0483402E+06    1.7821393E-07    1.7984714E-07    7.0483402E+06    4.7261052E-07    7.0484399E+06
   -0.72   800.000   -7.713E-01    7.1160207E+06    1.7721562E-07    1.7891341E-07    7.1160207E+06    4.7201253E-07    7.1161358E+06
   -0.71   800.000   -7.842E-01    7.1821889E+06    1.7605354E-07    1.7782172E-07    7.1821889E+06    4.7097874E-07    7.1823219E+06
   -0.70   800.000   -7.972E-01    7.2467644E+06    1.7474937E-07    1.7659171E-07    7.2467644E+06    4.6955290E-07    7.2469180E+06
   -0.69   800.000   -8.104E-01    7.3096716E+06    1.7332413E-07    1.7524220E-07    7.3096716E+06    4.6777708E-07    7.3098490E+06
   -0.68   800.000   -8.237E-01    7.3708376E+06    1.7179692E-07    1.7379019E-07    7.3708376E+06    4.6568919E-07    7.3710425E+06
   -0.67   800.000   -8.371E-01    7.4301902E+06    1.7018406E-07    1.7225009E-07    7.4301902E+06    4.6332142E-07    7.4304268E+06
   -0.66   800.000   -8.507E-01    7.4876558E+06    1.6849875E-07    1.7063350E-07    7.4876558E+06    4.6069982E-07    7.4879290E+06
   -0.65   800.000   -8.644E-01    7.5431600E+06    1.6675112E-07    1.6894940E-07    7.5431600E+06    4.5784510E-07    7.5434752E+06
   -0.64   800.000   -8.782E-01    7.5966270E+06    1.6494877E-07    1.6720469E-07    7.5966270E+06    4.5477423E-07    7.5969908E+06
   -0.63   800.000   -8.921E-01    7.6479821E+06    1.6309760E-07    1.6540501E-07    7.6479821E+06    4.5150275E-07    7.6484018E+06
   -0.62   800.000   -9.062E-01    7.6971522E+06    1.6120277E-07    1.6355571E-07    7.6971522E+06    4.4804714E-07    7.6976361E+06
   -0.61   800.000   -9.203E-01    7.7440672E+06    1.5926965E-07    1.6166261E-07    7.7440672E+06    4.4442675E-07    7.7446251E+06
   -0.60   800.000   -9.345E-01    7.7886602E+06    1.5730454E-07    1.5973264E-07    7.7886602E+06    4.4066503E-07    7.7893030E+06
   -0.59   800.000   -9.488E-01    7.8308661E+06    1.5531499E-07    1.5777403E-07    7.8308661E+06    4.3678970E-07    7.8316064E+06
   -0.58   800.000   -9.631E-01    7.8706200E+06    1.5330989E-07    1.5579626E-07    7.8706200E+06    4.3283191E-07    7.8714721E+06
   -0.57   800.000   -9.775E-01    7.9078550E+06    1.5129906E-07    1.5380958E-07    7.9078550E+06    4.2882456E-07    7.9088351E+06
   -0.56   800.000   -9.920E-01    7.9424998E+06    1.4929268E-07    1.5182441E-07    7.9424998E+06    4.2480023E-07    7.9436262E+06
   -0.55   800.000   -1.006E+00    7.9744788E+06    1.4730062E-07    1.4985064E-07    7.9744788E+06    4.2078906E-07    7.9757722E+06
   -0.54   800.000   -1.021E+00    8.0037126E+06    1.4533180E-07    1.4789707E-07    8.0037126E+06    4.1681716E-07    8.0051963E+06
   -0.53   800.000   -1.036E+00    8.0301220E+06    1.4339372E-07    1.4597101E-07    8.0301220E+06    4.1290571E-07    8.0318221E+06
   -0.52   800.000   -1.050E+00    8.0536331E+06    1.4149232E-07    1.4407820E-07    8.0536331E+06    4.0907109E-07    8.0555785E+06
   -0.51   800.000   -1.065E+00    8.0741840E+06    1.3963209E-07    1.4222303E-07    8.0741840E+06    4.0532585E-07    8.0764067E+06
   -0.50   800.000   -1.079E+00    8.0917311E+06    1.3781654E-07    1.4040906E-07    8.0917311E+06    4.0168049E-07    8.0942663E+06
   -0.49   800.000   -1.094E+00    8.1062555E+06    1.3604878E-07    1.3863962E-07    8.1062555E+06    3.9814558E-07    8.1091415E+06
   -0.48   800.000   -1.109E+00    8.1177660E+06    1.3433232E-07    1.3691861E-07    8.1177660E+06    3.9473389E-07    8.1210442E+06
   -0.47   800.000   -1.123E+00    8.1263004E+06    1.3267171E-07    1.3525112E-07    8.1263004E+06    3.9146218E-07    8.1300149E+06
   -0.46   800.000   -1.138E+00    8.1319232E+06    1.3107307E-07    1.3364393E-07    8.1319232E+06    3.8835214E-07    8.1361203E+06
   -0.45   800.000   -1.152E+00    8.1347209E+06    1.2954438E-07    1.3210571E-07    8.1347209E+06    3.8543058E-07    8.1394486E+06
   -0.44   800.000   -1.166E+00    8.1347955E+06    1.2809541E-07    1.3064691E-07    8.1347955E+06    3.8272851E-07    8.1401026E+06
   -0.43   800.000   -1.181E+00    8.1322581E+06    1.2673734E-07    1.2927937E-07    8.1322581E+06    3.8027947E-07    8.1381929E+06
   -0.42   800.000   -1.195E+00    8.1272230E+06    1.2548214E-07    1.2801565E-07    8.1272230E+06    3.7811720E-07    8.1338318E+06
   -0.41   800.000   -1.209E+00    8.1198041E+06    1.2434171E-07    1.2686815E-07    8.1198041E+06    3.7627302E-07    8.1271296E+06
   -0.40   800.000   -1.224E+00    8.1101139E+06    1.2332697E-07    1.2584822E-07    8.1101139E+06    3.7477327E-07    8.1181935E+06
   -0.39   800.000   -1.238E+00    8.0982660E+06    1.2244698E-07    1.2496528E-07    8.0982660E+06    3.7363697E-07    8.1071293E+06
   -0.38   800.000   -1.252E+00    8.0843788E+06    1.2170814E-07    1.2422602E-07    8.0843788E+06    3.7287413E-07    8.0940458E+06
   -0.37   800.000   -1.266E+00    8.0685805E+06    1.2111361E-07    1.2363387E-07    8.0685805E+06    3.7248458E-07    8.0790600E+06
   -0.36   800.000   -1.280E+00    8.0510134E+06    1.2066290E-07    1.2318857E-07    8.0510134E+06    3.7245755E-07    8.0623011E+06
   -0.35   800.000   -1.293E+00    8.0318357E+06    1.2035174E-07    1.2288607E-07    8.0318357E+06    3.7277175E-07    8.0439129E+06
   -0.34   800.000   -1.307E+00    8.0112205E+06    1.2017207E-07    1.2271851E-07    8.0112205E+06    3.7339602E-07    8.0240539E+06
   -0.33   800.000   -1.321E+00    7.9893510E+06    1.2011230E-07    1.2267451E-07    7.9893510E+06    3.7429033E-07    8.0028931E+06
   -0.32   800.000   -1.335E+00    7.9664139E+06    1.2015763E-07    1.2273945E-07    7.9664139E+06    3.7540706E-07    7.9806033E+06
   -0.31   800.000   -1.348E+00    7.9425901E+06    1.2029060E-07    1.2289606E-07    7.9425901E+06    3.7669251E-07    7.9573538E+06
   -0.30   800.000   -1.362E+00    7.9180458E+06    1.2049163E-07    1.2312493E-07    7.9180458E+06    3.7808852E-07    7.9333013E+06
   -0.29   800.000   -1.375E+00    7.8929253E+06    1.2073973E-07    1.2340523E-07    7.8929253E+06    3.7953420E-07    7.9085833E+06
   -0.28   800.000   -1.389E+00    7.8673456E+06    1.2101317E-07    1.2371537E-07    7.8673456E+06    3.8096758E-07    7.8833132E+06
   -0.27   800.000   -1.402E+00    7.8413959E+06    1.2129018E-07    1.2403365E-07    7.8413959E+06    3.8232731E-07    7.8575794E+06
   -0.26   800.000   -1.415E+00    7.8151395E+06    1.2154954E-07    1.2433889E-07    7.8151395E+06    3.8355418E-07    7.8314474E+06
   -0.25   800.000   -1.429E+00    7.7886210E+06    1.2177110E-07    1.2461092E-07    7.7886210E+06    3.8459249E-07    7.8049661E+06
   -0.24   800.000   -1.442E+00    7.7618746E+06    1.2193623E-07    1.2483097E-07    7.7618746E+06    3.8539138E-07    7.7781765E+06
   -0.23   800.000   -1.456E+00    7.7349359E+06    1.2202804E-07    1.2498195E-07    7.7349359E+06    3.8590585E-07    7.7511219E+06
   -0.22   800.000   -1.469E+00    7.7078508E+06    1.2203165E-07    1.2504869E-07    7.7078508E+06    3.8609782E-07    7.7238574E+06
   -0.21   800.000   -1.483E+00    7.6806845E+06    1.2193425E-07    1.2501800E-07    7.6806845E+06    3.8593687E-07    7.6964572E+06
   -0.20   800.000   -1.497E+00    7.6535245E+06    1.2172514E-07    1.2487876E-07    7.6535245E+06    3.8540082E-07    7.6690180E+06
   -0.19   800.000   -1.510E+00    7.6264795E+06    1.2139579E-07    1.2462195E-07    7.6264795E+06    3.8447592E-07    7.6416573E+06
   -0.18   800.000   -1.524E+00    7.5996727E+06    1.2093971E-07    1.2424061E-07    7.5996727E+06    3.8315681E-07    7.6145064E+06
   -0.17   800.000   -1.538E+00    7.5732304E+06    1.2035252E-07    1.2372979E-07    7.5732304E+06    3.8144604E-07    7.5876991E+06
   -0.16   800.000   -1.553E+00    7.5472690E+06    1.1963191E-07    1.2308662E-07    7.5472690E+06    3.7935349E-07    7.5613579E+06
   -0.15   800.000   -1.567E+00    7.5218819E+06    1.1877773E-07    1.2231032E-07    7.5218819E+06    3.7689575E-07    7.5355818E+06
   -0.14   800.000   -1.581E+00    7.4971302E+06    1.1779226E-07    1.2140244E-07    7.4971302E+06    3.7409578E-07    7.5104364E+06
   -0.13   800.000   -1.596E+00    7.4730397E+06    1.1668052E-07    1.2036718E-07    7.4730397E+06    3.7098298E-07    7.4859511E+06
   -0.12   800.000   -1.611E+00    7.4496058E+06    1.1545087E-07    1.1921189E-07    7.4496058E+06    3.6759395E-07    7.4621243E+06
   -0.11   800.000   -1.626E+00    7.4268051E+06    1.1411563E-07    1.1794779E-07    7.4268051E+06    3.6397372E-07    7.4389348E+06
   -0.10   800.000   -1.642E+00    7.4046144E+06    1.1269179E-07    1.1659060E-07    7.4046144E+06    3.6017747E-07    7.4163611E+06
   -0.09   800.000   -1.657E+00    7.3830309E+06    1.1120165E-07    1.1516131E-07    7.3830309E+06    3.5627230E-07    7.3944015E+06
   -0.08   800.000   -1.673E+00    7.3620925E+06    1.0967328E-07    1.1368659E-07    7.3620925E+06    3.5233870E-07    7.3730949E+06
   -0.07   800.000   -1.689E+00    7.3418931E+06    1.0814068E-07    1.1219912E-07    7.3418931E+06    3.4847144E-07    7.3525357E+06
   -0.06   800.000   -1.706E+00    7.3225896E+06    1.0664363E-07    1.1073750E-07    7.3225896E+06    3.4477957E-07    7.3328811E+06
   -0.05   800.000   -1.722E+00    7.3044004E+06    1.0522721E-07    1.0934584E-07    7.3044004E+06    3.4138555E-07    7.3143497E+06
   -0.04   800.000   -1.739E+00    7.2875952E+06    1.0394108E-07    1.0807309E-07    7.2875952E+06    3.3842355E-07    7.2972111E+06
   -0.03   800.000   -1.756E+00    7.2724773E+06    1.0283852E-07    1.0697216E-07    7.2724773E+06    3.3603722E-07    7.2817687E+06
   -0.02   800.000   -1.774E+00    7.2593628E+06    1.0197539E-07    1.0609889E-07    7.2593628E+06    3.3437706E-07    7.2683385E+06
   -0.01   800.000   -1.791E+00    7.2485592E+06    1.0140910E-07    1.0551098E-07    7.2485592E+06    3.3359757E-07    7.2572279E+06
    0.00   800.000   -1.809E+00    7.2403477E+06    1.0119742E-07    1.0526685E-07    7.2403477E+06    3.3385443E-07    7.2487181E+06
    0.01   800.000   -1.827E+00    7.2349708E+06    1.0139746E-07    1.0542450E-07    7.2349708E+06    3.3530138E-07    7.2430519E+06
    0.02   800.000   -1.846E+00    7.2326287E+06    1.0206436E-07    1.0604019E-07    7.2326287E+06    3.3808707E-07    7.2404296E+06
    0.03   800.000   -1.864E+00    7.2334822E+06    1.0325000E-07    1.0716710E-07    7.2334822E+06    3.4235145E-07    7.2410121E+06
    0.04   800.000   -1.883E+00    7.2376626E+06    1.0500147E-07    1.0885367E-07    7.2376626E+06    3.4822160E-07    7.2449314E+06
    0.05   800.000   -1.902E+00    7.2452852E+06    1.0735926E-07    1.1114182E-07    7.2452852E+06    3.5580697E-07    7.2523033E+06
    0.06   800.000   -1.921E+00    7.2564628E+06    1.1035525E-07    1.1406483E-07    7.2564628E+06    3.6519377E-07    7.2632408E+06
    0.07   800.000   -1.940E+00    7.2713150E+06    1.1401043E-07    1.1764501E-07    7.2713150E+06    3.7643860E-07    7.2778641E+06
    0.08   800.000   -1.960E+00    7.2899701E+06    1.1833234E-07    1.2189115E-07    7.2899701E+06    3.8956130E-07    7.2963021E+06
    0.09   800.000   -1.979E+00    7.3125574E+06    1.2331253E-07    1.2679589E-07    7.3125574E+06    4.0453741E-07    7.3186842E+06
    0.10   800.000   -1.999E+00    7.3391874E+06    1.2892396E-07    1.3233315E-07    7.3391874E+06    4.2129053E-07    7.3451214E+06
    0.11   800.000   -2.019E+00    7.3699221E+06    1.3511875E-07    1.3845585E-07    7.3699221E+06    4.3968542E-07    7.3756754E+06
    0.12   800.000   -2.039E+00    7.4047366E+06    1.4182647E-07    1.4509421E-07    7.4047366E+06    4.5952261E-07    7.4103214E+06
    0.13   800.000   -2.059E+00    7.4434765E+06    1.4895338E-07    1.5215500E-07    7.4434765E+06    4.8053550E-07    7.4489044E+06
    0.14   800.000   -2.079E+00    7.4858149E+06    1.5638295E-07    1.5952207E-07    7.4858149E+06    5.0239114E-07    7.4910971E+06
    0.15   800.000   -2.100E+00    7.5312155E+06    1.6397781E-07    1.6705833E-07    7.5312155E+06    5.2469533E-07    7.5363624E+06
    0.16   800.000   -2.121E+00    7.5789036E+06    1.7158351E-07    1.7460946E-07    7.5789036E+06    5.4700269E-07    7.5839252E+06
    0.17   800.000   -2.142E+00    7.6278519E+06    1.7903381E-07    1.8200927E-07    7.6278519E+06    5.6883156E-07    7.6327572E+06
    0.18   800.000   -2.163E+00    7.6767789E+06    1.8615739E-07    1.8908635E-07    7.6767789E+06    5.8968300E-07    7.6815763E+06
    0.19   800.000   -2.184E+00    7.7241628E+06    1.9278542E-07    1.9567164E-07    7.7241628E+06    6.0906258E-07    7.7288600E+06
    0.20   800.000   -2.206E+00    7.7682676E+06    1.9875935E-07    2.0160617E-07    7.7682676E+06    6.2650282E-07    7.7728715E+06
# T(K) = 900.00   Npoints =     441   V(cm^3) =  3.848E-22
   -4.20   900.000    9.538E+00    7.2718888E+05    4.5391899E-08    4.5517315E-08    7.2718888E+05    1.1281478E-07    7.2753418E+05
   -4.19   900.000    9.490E+00    7.6004479E+05    4.8842648E-08    4.8976240E-08    7.6004479E+05    1.2143068E-07    7.6039578E+05
   -4.18   900.000    9.438E+00    7.9265037E+05    5.2406273E-08    5.2548083E-08    7.9265037E+05    1.3033105E-07    7.9300620E+05
   -4.17   900.000    9.382E+00    8.2489138E+05    5.6056848E-08    5.6206830E-08    8.2489138E+05    1.3945365E-07    8.2525124E+05
   -4.16   900.000    9.323E+00    8.5667000E+05    5.9763526E-08    5.9921541E-08    8.5667000E+05    1.4872461E-07    8.5703315E+05
   -4.15   900.000    9.259E+00    8.8790910E+05    6.3490918E-08    6.3656731E-08    8.8790910E+05    1.5805944E-07    8.8827480E+05
   -4.14   900.000    9.192E+00    9.1855619E+05    6.7199772E-08    6.7373049E-08    9.1855619E+05    1.6736461E-07    9.1892374E+05
   -4.13   900.000    9.120E+00    9.4858706E+05    7.0847958E-08    7.1028268E-08    9.4858706E+05    1.7653999E-07    9.4895581E+05
   -4.12   900.000    9.044E+00    9.7800866E+05    7.4391753E-08    7.4578570E-08    9.7800866E+05    1.8548183E-07    9.7837796E+05
   -4.11   900.000    8.965E+00    1.0068609E+06    7.7787373E-08    7.7980085E-08    1.0068609E+06    1.9408645E-07    1.0072301E+06
   -4.10   900.000    8.881E+00    1.0352168E+06    8.0992712E-08    8.1190622E-08    1.0352168E+06    2.0225427E-07    1.0355852E+06
   -4.09   900.000    8.793E+00    1.0631812E+06    8.3969160E-08    8.4171496E-08    1.0631812E+06    2.0989410E-07    1.0635481E+06
   -4.08   900.000    8.702E+00    1.0908873E+06    8.6683401E-08    8.6889321E-08    1.0908873E+06    2.1692727E-07    1.0912520E+06
   -4.07   900.000    8.607E+00    1.1184909E+06    8.9109046E-08    8.9317643E-08    1.1184909E+06    2.2329140E-07    1.1188524E+06
   -4.06   900.000    8.509E+00    1.1461625E+06    9.1227951E-08    9.1438257E-08    1.1461625E+06    2.2894340E-07    1.1465201E+06
   -4.05   900.000    8.408E+00    1.1740788E+06    9.3031094E-08    9.3242082E-08    1.1740788E+06    2.3386142E-07    1.1744315E+06
   -4.04   900.000    8.303E+00    1.2024111E+06    9.4518900E-08    9.4729485E-08    1.2024111E+06    2.3804548E-07    1.2027578E+06
   -4.03   900.000    8.196E+00    1.2313148E+06    9.5700954E-08    9.5909985E-08    1.2313148E+06    2.4151669E-07    1.2316545E+06
   -4.02   900.000    8.087E+00    1.2609182E+06    9.6595082E-08    9.6801344E-08    1.2609182E+06    2.4431502E-07    1.2612497E+06
   -4.01   900.000    7.975E+00    1.2913126E+06    9.7225875E-08    9.7428079E-08    1.2913126E+06    2.4649573E-07    1.2916348E+06
   -4.00   900.000    7.862E+00    1.3225442E+06    9.7622754E-08    9.7819534E-08    1.3225442E+06    2.4812476E-07    1.3228560E+06
   -3.99   900.000    7.746E+00    1.3546084E+06    9.7817748E-08    9.8007654E-08    1.3546084E+06    2.4927353E-07    1.3549087E+06
   -3.98   900.000    7.630E+00    1.3874472E+06    9.7843175E-08    9.8024674E-08    1.3874472E+06    2.5001341E-07    1.3877352E+06
   -3.97   900.000    7.512E+00    1.4209499E+06    9.7729435E-08    9.7900912E-08    1.4209499E+06    2.5041060E-07    1.4212246E+06
   -3.96   900.000    7.393E+00    1.4549564E+06    9.7503094E-08    9.7662859E-08    1.4549564E+06    2.5052159E-07    1.4552171E+06
   -3.95   900.000    7.273E+00    1.4892642E+06    9.7185410E-08    9.7331710E-08    1.4892642E+06    2.5038978E-07    1.4895104E+06
   -3.94   900.000    7.152E+00    1.5236376E+06    9.6791396E-08    9.6922433E-08    1.5236376E+06    2.5004328E-07    1.5238689E+06
   -3.93   900.000    7.032E+00    1.5578190E+06    9.6329457E-08    9.6443413E-08    1.5578190E+06    2.4949414E-07    1.5580353E+06
   -3.92   900.000    6.911E+00    1.5915413E+06    9.5801582E-08    9.5896645E-08    1.5915413E+06    2.4873892E-07    1.5917425E+06
   -3.91   900.000    6.790E+00    1.6245407E+06    9.5204012E-08    9.5278413E-08    1.6245407E+06    2.4776037E-07    1.6247270E+06
   -3.90   900.000    6.669E+00    1.6565695E+06    9.4528299E-08    9.4580337E-08    1.6565695E+06    2.4653008E-07    1.6567413E+06
   -3.89   900.000    6.549E+00    1.6874079E+06    9.3762601E-08    9.3790684E-08    1.6874079E+06    2.4501172E-07    1.6875655E+06
   -3.88   900.000    6.430E+00    1.7168734E+06    9.2893119E-08    9.2895791E-08    1.7168734E+06    2.4316464E-07    1.7170175E+06
   -3.87   900.000    6.312E+00    1.7448293E+06    9.1905528E-08    9.1881497E-08    1.7448293E+06    2.4094748E-07    1.7449607E+06
   -3.86   900.000    6.195E+00    1.7711901E+06    9.0786325E-08    9.0734484E-08    1.7711901E+06    2.3832156E-07    1.7713093E+06
   -3.85   900.000    6.080E+00    1.7959240E+06    8.9524004E-08    8.9443444E-08    1.7959240E+06    2.3525393E-07    1.7960318E+06
   -3.84   900.000    5.967E+00    1.8190534E+06    8.8110021E-08    8.8000037E-08    1.8190534E+06    2.3171986E-07    1.8191508E+06
   -3.83   900.000    5.855E+00    1.8406532E+06    8.6539507E-08    8.6399600E-08    1.8406532E+06    2.2770472E-07    1.8407408E+06
   -3.82   900.000    5.747E+00    1.8608462E+06    8.4811744E-08    8.4641608E-08    1.8608462E+06    2.2320529E-07    1.8609248E+06
   -3.81   900.000    5.641E+00    1.8797978E+06    8.2930381E-08    8.2729888E-08    1.8797978E+06    2.1823039E-07    1.8798682E+06
   -3.80   900.000    5.537E+00    1.8977090E+06    8.0903425E-08    8.0672607E-08    1.8977090E+06    2.1280096E-07    1.8977718E+06
   -3.79   900.000    5.437E+00    1.9148088E+06    7.8743023E-08    7.8482044E-08    1.9148088E+06    2.0694954E-07    1.9148649E+06
   -3.78   900.000    5.340E+00    1.9313464E+06    7.6465049E-08    7.6174184E-08    1.9313464E+06    2.0071930E-07    1.9313964E+06
   -3.77   900.000    5.247E+00    1.9475833E+06    7.4088539E-08    7.3768145E-08    1.9475833E+06    1.9416260E-07    1.9476277E+06
   -3.76   900.000    5.156E+00    1.9637852E+06    7.1635002E-08    7.1285498E-08    1.9637852E+06    1.8733922E-07    1.9638247E+06
   -3.75   900.000    5.070E+00    1.9802152E+06    6.9127641E-08    6.8749486E-08    1.9802152E+06    1.8031433E-07    1.9802502E+06
   -3.74   900.000    4.987E+00    1.9971268E+06    6.6590530E-08    6.6184211E-08    1.9971268E+06    1.7315628E-07    1.9971578E+06
   -3.73   900.000    4.908E+00    2.0147579E+06    6.4047794E-08    6.3613815E-08    2.0147579E+06    1.6593443E-07    2.0147854E+06
   -3.72   900.000    4.833E+00    2.0333257E+06    6.1522836E-08    6.1061715E-08    2.0333257E+06    1.5871701E-07    2.0333500E+06
   -3.71   900.000    4.761E+00    2.0530221E+06    5.9037643E-08    5.8549913E-08    2.0530221E+06    1.5156919E-07    2.0530436E+06
   -3.70   900.000    4.693E+00    2.0740108E+06    5.6612224E-08    5.6098437E-08    2.0740108E+06    1.4455138E-07    2.0740297E+06
   -3.69   900.000    4.628E+00    2.0964245E+06    5.4264188E-08    5.3724920E-08    2.0964245E+06    1.3771801E-07    2.0964412E+06
   -3.68   900.000    4.567E+00    2.1203640E+06    5.2008477E-08    5.1444336E-08    2.1203640E+06    1.3111655E-07    2.1203788E+06
   -3.67   900.000    4.509E+00    2.1458982E+06    4.9857257E-08    4.9268891E-08    2.1458982E+06    1.2478697E-07    2.1459112E+06
   -3.66   900.000    4.454E+00    2.1730641E+06    4.7819955E-08    4.7208054E-08    2.1730641E+06    1.1876164E-07    2.1730756E+06
   -3.65   900.000    4.402E+00    2.2018693E+06    4.5903407E-08    4.5268705E-08    2.2018693E+06    1.1306537E-07    2.2018794E+06
   -3.64   900.000    4.353E+00    2.2322935E+06    4.4112100E-08    4.3455373E-08    2.2322935E+06    1.0771591E-07    2.2323025E+06
   -3.63   900.000    4.306E+00    2.2642915E+06    4.2448470E-08    4.1770529E-08    2.2642915E+06    1.0272447E-07    2.2642994E+06
   -3.62   900.000    4.262E+00    2.2977960E+06    4.0913218E-08    4.0214898E-08    2.2977960E+06    9.8096420E-08    2.2978029E+06
   -3.61   900.000    4.220E+00    2.3327204E+06    3.9505627E-08    3.8787778E-08    2.3327204E+06    9.3832058E-08    2.3327265E+06
   -3.60   900.000    4.180E+00    2.3689620E+06    3.8223842E-08    3.7487313E-08    2.3689620E+06    8.9927330E-08    2.3689674E+06
   -3.59   900.000    4.142E+00    2.4064049E+06    3.7065115E-08    3.6310734E-08    2.4064049E+06    8.6374533E-08    2.4064097E+06
   -3.58   900.000    4.105E+00    2.4449222E+06    3.6025980E-08    3.5254546E-08    2.4449222E+06    8.3162939E-08    2.4449265E+06
   -3.57   900.000    4.070E+00    2.4843791E+06    3.5102388E-08    3.4314648E-08    2.4843791E+06    8.0279327E-08    2.4843829E+06
   -3.56   900.000    4.037E+00    2.5246345E+06    3.4289778E-08    3.3486421E-08    2.5246345E+06    7.7708433E-08    2.5246378E+06
   -3.55   900.000    4.004E+00    2.5655435E+06    3.3583119E-08    3.2764758E-08    2.5655435E+06    7.5433313E-08    2.5655464E+06
   -3.54   900.000    3.973E+00    2.6069591E+06    3.2976914E-08    3.2144081E-08    2.6069591E+06    7.3435637E-08    2.6069617E+06
   -3.53   900.000    3.943E+00    2.6487342E+06    3.2465193E-08    3.1618335E-08    2.6487342E+06    7.1695939E-08    2.6487366E+06
   -3.52   900.000    3.913E+00    2.6907235E+06    3.2041509E-08    3.1180979E-08    2.6907235E+06    7.0193827E-08    2.6907256E+06
   -3.51   900.000    3.884E+00    2.7327851E+06    3.1698930E-08    3.0824994E-08    2.7327851E+06    6.8908181E-08    2.7327870E+06
   -3.50   900.000    3.855E+00    2.7747829E+06    3.1430061E-08    3.0542894E-08    2.7747829E+06    6.7817353E-08    2.7747846E+06
   -3.49   900.000    3.827E+00    2.8165881E+06    3.1227068E-08    3.0326763E-08    2.8165881E+06    6.6899360E-08    2.8165896E+06
   -3.48   900.000    3.800E+00    2.8580811E+06    3.1081740E-08    3.0168315E-08    2.8580811E+06    6.6132108E-08    2.8580825E+06
   -3.47   900.000    3.772E+00    2.8991531E+06    3.0985567E-08    3.0058967E-08    2.8991531E+06    6.5493614E-08    2.8991544E+06
   -3.46   900.000    3.745E+00    2.9397074E+06    3.0929834E-08    2.9989943E-08    2.9397074E+06    6.4962264E-08    2.9397087E+06
   -3.45   900.000    3.718E+00    2.9796598E+06    3.0905745E-08    2.9952396E-08    2.9796598E+06    6.4517069E-08    2.9796610E+06
   -3.44   900.000    3.691E+00    3.0189389E+06    3.0904562E-08    2.9937540E-08    3.0189389E+06    6.4137945E-08    3.0189401E+06
   -3.43   900.000    3.664E+00    3.0574861E+06    3.0917755E-08    2.9936811E-08    3.0574861E+06    6.3805986E-08    3.0574873E+06
   -3.42   900.000    3.637E+00    3.0952542E+06    3.0937164E-08    2.9942021E-08    3.0952542E+06    6.3503722E-08    3.0952554E+06
   -3.41   900.000    3.610E+00    3.1322066E+06    3.0955161E-08    2.9945523E-08    3.1322066E+06    6.3215358E-08    3.1322077E+06
   -3.40   900.000    3.582E+00    3.1683153E+06    3.0964804E-08    2.9940368E-08    3.1683153E+06    6.2926954E-08    3.1683165E+06
   -3.39   900.000    3.555E+00    3.2035595E+06    3.0959975E-08    2.9920440E-08    3.2035595E+06    6.2626559E-08    3.2035607E+06
   -3.38   900.000    3.527E+00    3.2379232E+06    3.0935493E-08    2.9880574E-08    3.2379232E+06    6.2304273E-08    3.2379245E+06
   -3.37   900.000    3.499E+00    3.2713936E+06    3.0887197E-08    2.9816639E-08    3.2713936E+06    6.1952248E-08    3.2713950E+06
   -3.36   900.000    3.471E+00    3.3039585E+06    3.0811993E-08    2.9725589E-08    3.3039585E+06    6.1564627E-08    3.3039600E+06
   -3.35   900.000    3.443E+00    3.3356048E+06    3.0707870E-08    2.9605480E-08    3.3356048E+06    6.1137446E-08    3.3356065E+06
   -3.34   900.000    3.414E+00    3.3663166E+06    3.0573881E-08    2.9455448E-08    3.3663166E+06    6.0668509E-08    3.3663185E+06
   -3.33   900.000    3.385E+00    3.3960738E+06    3.0410095E-08    2.9275666E-08    3.3960738E+06    6.0157250E-08    3.3960759E+06
   -3.32   900.000    3.356E+00    3.4248514E+06    3.0217526E-08    2.9067269E-08    3.4248514E+06    5.9604601E-08    3.4248537E+06
   -3.31   900.000    3.326E+00    3.4526190E+06    2.9998035E-08    2.8832257E-08    3.4526190E+06    5.9012865E-08    3.4526216E+06
   -3.30   900.000    3.297E+00    3.4793415E+06    2.9754228E-08    2.8573380E-08    3.4793415E+06    5.8385590E-08    3.4793444E+06
   -3.29   900.000    3.267E+00    3.5049794E+06    2.9489320E-08    2.8294010E-08    3.5049794E+06    5.7727447E-08    3.5049827E+06
   -3.28   900.000    3.237E+00    3.5294907E+06    2.9207005E-08    2.7997989E-08    3.5294907E+06    5.7044098E-08    3.5294945E+06
   -3.27   900.000    3.206E+00    3.5528324E+06    2.8911303E-08    2.7689481E-08    3.5528324E+06    5.6342044E-08    3.5528366E+06
   -3.26   900.000    3.175E+00    3.5749621E+06    2.8606404E-08    2.7372806E-08    3.5749621E+06    5.5628456E-08    3.5749668E+06
   -3.25   900.000    3.144E+00    3.5958399E+06    2.8296519E-08    2.7052279E-08    3.5958399E+06    5.4910999E-08    3.5958453E+06
   -3.24   900.000    3.113E+00    3.6154304E+06    2.7985730E-08    2.6732061E-08    3.6154304E+06    5.4197635E-08    3.6154366E+06
   -3.23   900.000    3.082E+00    3.6337043E+06    2.7677859E-08    2.6416021E-08    3.6337043E+06    5.3496438E-08    3.6337113E+06
   -3.22   900.000    3.050E+00    3.6506397E+06    2.7376356E-08    2.6107624E-08    3.6506397E+06    5.2815417E-08    3.6506476E+06
   -3.21   900.000    3.018E+00    3.6662241E+06    2.7084221E-08    2.5809847E-08    3.6662241E+06    5.2162363E-08    3.6662331E+06
   -3.20   900.000    2.985E+00    3.6804558E+06    2.6803950E-08    2.5525136E-08    3.6804558E+06    5.1544720E-08    3.6804661E+06
   -3.19   900.000    2.953E+00    3.6933455E+06    2.6537519E-08    2.5255384E-08    3.6933455E+06    5.0969488E-08    3.6933571E+06
   -3.18   900.000    2.919E+00    3.7049174E+06    2.6286394E-08    2.5001950E-08    3.7049174E+06    5.0443141E-08    3.7049307E+06
   -3.17   900.000    2.886E+00    3.7152105E+06    2.6051565E-08    2.4765697E-08    3.7152105E+06    4.9971578E-08    3.7152255E+06
   -3.16   900.000    2.852E+00    3.7242784E+06    2.5833598E-08    2.4547049E-08    3.7242784E+06    4.9560067E-08    3.7242954E+06
   -3.15   900.000    2.817E+00    3.7321892E+06    2.5632694E-08    2.4346059E-08    3.7321892E+06    4.9213210E-08    3.7322086E+06
   -3.14   900.000    2.782E+00    3.7390238E+06    2.5448753E-08    2.4162476E-08    3.7390238E+06    4.8934899E-08    3.7390459E+06
   -3.13   900.000    2.747E+00    3.7448734E+06    2.5281429E-08    2.3995804E-08    3.7448734E+06    4.8728266E-08    3.7448984E+06
   -3.12   900.000    2.711E+00    3.7498351E+06    2.5130178E-08    2.3845361E-08    3.7498351E+06    4.8595634E-08    3.7498635E+06
   -3.11   900.000    2.674E+00    3.7540083E+06    2.4994294E-08    2.3710311E-08    3.7540083E+06    4.8538456E-08    3.7540406E+06
   -3.10   900.000    2.636E+00    3.7574882E+06    2.4872930E-08    2.3589696E-08    3.7574882E+06    4.8557262E-08    3.7575248E+06
   -3.09   900.000    2.597E+00    3.7603606E+06    2.4765116E-08    2.3482448E-08    3.7603606E+06    4.8651594E-08    3.7604022E+06
   -3.08   900.000    2.557E+00    3.7626956E+06    2.4669757E-08    2.3387399E-08    3.7626956E+06    4.8819953E-08    3.7627427E+06
   -3.07   900.000    2.517E+00    3.7645416E+06    2.4585638E-08    2.3303275E-08    3.7645416E+06    4.9059751E-08    3.7645950E+06
   -3.06   900.000    2.475E+00    3.7659203E+06    2.4511416E-08    2.3228699E-08    3.7659203E+06    4.9367268E-08    3.7659808E+06
   -3.05   900.000    2.432E+00    3.7668215E+06    2.4445618E-08    2.3162177E-08    3.7668215E+06    4.9737612E-08    3.7668902E+06
   -3.04   900.000    2.388E+00    3.7672002E+06    2.4386627E-08    2.3102095E-08    3.7672002E+06    5.0164697E-08    3.7672779E+06
   -3.03   900.000    2.342E+00    3.7669736E+06    2.4332673E-08    2.3046698E-08    3.7669736E+06    5.0641204E-08    3.7670616E+06
   -3.02   900.000    2.295E+00    3.7660208E+06    2.4281814E-08    2.2994077E-08    3.7660208E+06    5.1158566E-08    3.7661203E+06
   -3.01   900.000    2.247E+00    3.7641839E+06    2.4231918E-08    2.2942141E-08    3.7641839E+06    5.1706948E-08    3.7642964E+06
   -3.00   900.000    2.197E+00    3.7612705E+06    2.4180630E-08    2.2888590E-08    3.7612705E+06    5.2275239E-08    3.7613976E+06
   -2.99   900.000    2.146E+00    3.7570591E+06    2.4125354E-08    2.2830891E-08    3.7570591E+06    5.2851071E-08    3.7572025E+06
   -2.98   900.000    2.094E+00    3.7513049E+06    2.4063229E-08    2.2766249E-08    3.7513049E+06    5.3420873E-08    3.7514665E+06
   -2.97   900.000    2.040E+00    3.7437483E+06    2.3991120E-08    2.2691602E-08    3.7437483E+06    5.3969974E-08    3.7439303E+06
   -2.96   900.000    1.984E+00    3.7341234E+06    2.3905631E-08    2.2603630E-08    3.7341234E+06    5.4482770E-08    3.7343281E+06
   -2.95   900.000    1.928E+00    3.7221675E+06    2.3803143E-08    2.2498786E-08    3.7221675E+06    5.4942968E-08    3.7223973E+06
   -2.94   900.000    1.870E+00    3.7076302E+06    2.3679870E-08    2.2373361E-08    3.7076302E+06    5.5333907E-08    3.7078879E+06
   -2.93   900.000    1.812E+00    3.6902820E+06    2.3531962E-08    2.2223576E-08    3.6902820E+06    5.5638956E-08    3.6905704E+06
   -2.92   900.000    1.752E+00    3.6699214E+06    2.3355612E-08    2.2045696E-08    3.6699214E+06    5.5841973E-08    3.6702436E+06
   -2.91   900.000    1.692E+00    3.6463814E+06    2.3147201E-08    2.1836171E-08    3.6463814E+06    5.5927806E-08    3.6467406E+06
   -2.90   900.000    1.632E+00    3.6195336E+06    2.2903440E-08    2.1591780E-08    3.6195336E+06    5.5882819E-08    3.6199332E+06
   -2.89   900.000    1.571E+00    3.5892910E+06    2.2621521E-08    2.1309780E-08    3.5892910E+06    5.5695390E-08    3.5897345E+06
   -2.88   900.000    1.510E+00    3.5556095E+06    2.2299253E-08    2.0988045E-08    3.5556095E+06    5.5356381E-08    3.5561005E+06
   -2.87   900.000    1.448E+00    3.5184877E+06    2.1935181E-08    2.0625182E-08    3.5184877E+06    5.4859512E-08    3.5190297E+06
   -2.86   900.000    1.388E+00    3.4779655E+06    2.1528680E-08    2.0220628E-08    3.4779655E+06    5.4201652E-08    3.4785621E+06
   -2.85   900.000    1.328E+00    3.4341216E+06    2.1080009E-08    1.9774701E-08    3.4341216E+06    5.3382978E-08    3.4347763E+06
   -2.84   900.000    1.268E+00    3.3870704E+06    2.0590331E-08    1.9288620E-08    3.3870704E+06    5.2407005E-08    3.3877865E+06
   -2.83   900.000    1.210E+00    3.3369575E+06    2.0061695E-08    1.8764486E-08    3.3369575E+06    5.1280486E-08    3.3377382E+06
   -2.82   900.000    1.152E+00    3.2839553E+06    1.9496973E-08    1.8205221E-08    3.2839553E+06    5.0013180E-08    3.2848036E+06
   -2.81   900.000    1.096E+00    3.2282575E+06    1.8899771E-08    1.7614474E-08    3.2282575E+06    4.8617509E-08    3.2291758E+06
   -2.80   900.000    1.042E+00    3.1700737E+06    1.8274307E-08    1.6996502E-08    3.1700737E+06    4.7108124E-08    3.1710643E+06
   -2.79   900.000    9.888E-01    3.1096242E+06    1.7625264E-08    1.6356023E-08    3.1096242E+06    4.5501396E-08    3.1106889E+06
   -2.78   900.000    9.376E-01    3.0471345E+06    1.6957641E-08    1.5698064E-08    3.0471345E+06    4.3814873E-08    3.0482747E+06
   -2.77   900.000    8.882E-01    2.9828310E+06    1.6276590E-08    1.5027798E-08    2.9828310E+06    4.2066719E-08    2.9840475E+06
   -2.76   900.000    8.408E-01    2.9169364E+06    1.5587261E-08    1.4350394E-08    2.9169364E+06    4.0275169E-08    2.9182297E+06
   -2.75   900.000    7.952E-01    2.8496667E+06    1.4894663E-08    1.3670870E-08    2.8496667E+06    3.8458019E-08    2.8510366E+06
   -2.74   900.000    7.516E-01    2.7812283E+06    1.4203538E-08    1.2993972E-08    2.7812283E+06    3.6632178E-08    2.7826744E+06
   -2.73   900.000    7.100E-01    2.7118163E+06    1.3518258E-08    1.2324074E-08    2.7118163E+06    3.4813290E-08    2.7133376E+06
   -2.72   900.000    6.703E-01    2.6416135E+06    1.2842752E-08    1.1665096E-08    2.6416135E+06    3.3015441E-08    2.6432085E+06
   -2.71   900.000    6.325E-01    2.5707891E+06    1.2180451E-08    1.1020457E-08    2.5707891E+06    3.1250955E-08    2.5724561E+06
   -2.70   900.000    5.965E-01    2.4994995E+06    1.1534259E-08    1.0393046E-08    2.4994995E+06    2.9530274E-08    2.5012363E+06
   -2.69   900.000    5.624E-01    2.4278877E+06    1.0906551E-08    9.7852166E-09    2.4278877E+06    2.7861924E-08    2.4296918E+06
   -2.68   900.000    5.300E-01    2.3560846E+06    1.0299186E-08    9.1988030E-09    2.3560846E+06    2.6252547E-08    2.3579533E+06
   -2.67   900.000    4.994E-01    2.2842095E+06    9.7135354E-09    8.6351480E-09    2.2842095E+06    2.4707004E-08    2.2861399E+06
   -2.66   900.000    4.703E-01    2.2123715E+06    9.1505270E-09    8.0951480E-09    2.2123715E+06    2.3228516E-08    2.2143601E+06
   -2.65   900.000    4.428E-01    2.1406698E+06    8.6106991E-09    7.5793056E-09    2.1406698E+06    2.1818853E-08    2.1427134E+06
   -2.64   900.000    4.167E-01    2.0691961E+06    8.0942573E-09    7.0877873E-09    2.0691961E+06    2.0478532E-08    2.0712909E+06
   -2.63   900.000    3.920E-01    1.9980344E+06    7.6011353E-09    6.6204835E-09    1.9980344E+06    1.9207034E-08    2.0001769E+06
   -2.62   900.000    3.687E-01    1.9272633E+06    7.1310543E-09    6.1770674E-09    1.9272633E+06    1.8003012E-08    1.9294493E+06
   -2.61   900.000    3.466E-01    1.8569558E+06    6.6835771E-09    5.7570488E-09    1.8569558E+06    1.6864494E-08    1.8591815E+06
   -2.60   900.000    3.257E-01    1.7871811E+06    6.2581571E-09    5.3598217E-09    1.7871811E+06    1.5789063E-08    1.7894423E+06
   -2.59   900.000    3.059E-01    1.7180047E+06    5.8541768E-09    4.9847035E-09    1.7180047E+06    1.4774016E-08    1.7202972E+06
   -2.58   900.000    2.872E-01    1.6494897E+06    5.4709790E-09    4.6309641E-09    1.6494897E+06    1.3816498E-08    1.6518091E+06
   -2.57   900.000    2.695E-01    1.5816967E+06    5.1078876E-09    4.2978479E-09    1.5816967E+06    1.2913611E-08    1.5840387E+06
   -2.56   900.000    2.527E-01    1.5146852E+06    4.7642210E-09    3.9845862E-09    1.5146852E+06    1.2062490E-08    1.5170454E+06
   -2.55   900.000    2.368E-01    1.4485141E+06    4.4392981E-09    3.6904044E-09    1.4485141E+06    1.1260368E-08    1.4508877E+06
   -2.54   900.000    2.217E-01    1.3832419E+06    4.1324405E-09    3.4145241E-09    1.3832419E+06    1.0504612E-08    1.3856243E+06
   -2.53   900.000    2.074E-01    1.3189277E+06    3.8429708E-09    3.1561635E-09    1.3189277E+06    9.7927425E-09    1.3213142E+06
   -2.52   900.000    1.939E-01    1.2556316E+06    3.5702101E-09    2.9145357E-09    1.2556316E+06    9.1224439E-09    1.2580171E+06
   -2.51   900.000    1.811E-01    1.1934150E+06    3.3134762E-09    2.6888495E-09    1.1934150E+06    8.4915573E-09    1.1957945E+06
   -2.50   900.000    1.689E-01    1.1323408E+06    3.0720828E-09    2.4783094E-09    1.1323408E+06    7.8980712E-09    1.1347091E+06
   -2.49   900.000    1.574E-01    1.0724737E+06    2.8453404E-09    2.2821197E-09    1.0724737E+06    7.3401048E-09    1.0748254E+06
   -2.48   900.000    1.465E-01    1.0138801E+06    2.6325593E-09    2.0994885E-09    1.0138801E+06    6.8158901E-09    1.0162097E+06
   -2.47   900.000    1.362E-01    9.5662826E+05    2.4330548E-09    1.9296346E-09    9.5662826E+05    6.3237530E-09    9.5893010E+05
   -2.46   900.000    1.264E-01    9.0078751E+05    2.2461529E-09    1.7717950E-09    9.0078751E+05    5.8620976E-09    9.0305579E+05
   -2.45   900.000    1.172E-01    8.4642835E+05    2.0711974E-09    1.6252320E-09    8.4642835E+05    5.4293923E-09    8.4865722E+05
   -2.44   900.000    1.085E-01    7.9362166E+05    1.9075569E-09    1.4892408E-09    7.9362166E+05    5.0241614E-09    7.9580524E+05
   -2.43   900.000    1.002E-01    7.4243806E+05    1.7546307E-09    1.3631562E-09    7.4243806E+05    4.6449803E-09    7.4457051E+05
   -2.42   900.000    9.246E-02    6.9294700E+05    1.6118543E-09    1.2463567E-09    6.9294700E+05    4.2904754E-09    6.9502261E+05
   -2.41   900.000    8.514E-02    6.4521569E+05    1.4787021E-09    1.1382682E-09    6.4521569E+05    3.9593271E-09    6.4722896E+05
   -2.40   900.000    7.826E-02    5.9930788E+05    1.3546894E-09    1.0383642E-09    5.9930788E+05    3.6502761E-09    6.0125362E+05
   -2.39   900.000    7.180E-02    5.5528253E+05    1.2393715E-09    9.4616531E-10    5.5528253E+05    3.3621306E-09    5.5715594E+05
   -2.38   900.000    6.574E-02    5.1319232E+05    1.1323414E-09    8.6123621E-10    5.1319232E+05    3.0937733E-09    5.1498910E+05
   -2.37   900.000    6.007E-02    4.7308223E+05    1.0332261E-09    7.8318157E-10    4.7308223E+05    2.8441678E-09    4.7479866E+05
   -2.36   900.000    5.478E-02    4.3498808E+05    9.4168186E-10    7.1164122E-10    4.3498808E+05    2.6123624E-09    4.3662109E+05
   -2.35   900.000    4.985E-02    3.9893522E+05    8.5738890E-10    6.4628493E-10    3.9893522E+05    2.3974917E-09    4.0048247E+05
   -2.34   900.000    4.527E-02    3.6493746E+05    7.8004676E-10    5.8680761E-10    3.6493746E+05    2.1987753E-09    3.6639734E+05
   -2.33   900.000    4.103E-02    3.3299615E+05    7.0936987E-10    5.3292506E-10    3.3299615E+05    2.0155135E-09    3.3436786E+05
   -2.32   900.000    3.711E-02    3.0309973E+05    6.4508438E-10    4.8437091E-10    3.0309973E+05    1.8470817E-09    3.0438324E+05
   -2.31   900.000    3.350E-02    2.7522351E+05    5.8692616E-10    4.4089458E-10    2.7522351E+05    1.6929233E-09    2.7641955E+05
   -2.30   900.000    3.018E-02    2.4933000E+05    5.3464007E-10    4.0226058E-10    2.4933000E+05    1.5525416E-09    2.5044003E+05
   -2.29   900.000    2.713E-02    2.2536946E+05    4.8798062E-10    3.6824881E-10    2.2536946E+05    1.4254932E-09    2.2639558E+05
   -2.28   900.000    2.435E-02    2.0328093E+05    4.4671359E-10    3.3865597E-10    2.0328093E+05    1.3113821E-09    2.0422585E+05
   -2.27   900.000    2.181E-02    1.8299352E+05    4.1061872E-10    3.1329759E-10    1.8299352E+05    1.2098561E-09    1.8386045E+05
   -2.26   900.000    1.950E-02    1.6442797E+05    3.7949302E-10    2.9201079E-10    1.6442797E+05    1.1206054E-09    1.6522054E+05
   -2.25   900.000    1.741E-02    1.4749833E+05    3.5315457E-10    2.7465726E-10    1.4749833E+05    1.0433640E-09    1.4822047E+05
   -2.24   900.000    1.551E-02    1.3211375E+05    3.3144664E-10    2.6112655E-10    1.3211375E+05    9.7791315E-10    1.3276962E+05
   -2.23   900.000    1.380E-02    1.1818027E+05    3.1424194E-10    2.5133950E-10    1.1818027E+05    9.2408812E-10    1.1877417E+05
   -2.22   900.000    1.226E-02    1.0560251E+05    3.0144690E-10    2.4525164E-10    1.0560251E+05    8.8178616E-10    1.0613880E+05
   -2.21   900.000    1.087E-02    9.4285301E+04    2.9300606E-10    2.4285678E-10    9.4285301E+04    8.5097676E-10    9.4768296E+04
   -2.20   900.000    9.629E-03    8.4135019E+04    2.8890634E-10    2.4419057E-10    8.4135019E+04    8.3171326E-10    8.4568974E+04
   -2.19   900.000    8.512E-03    7.5060855E+04    2.8918141E-10    2.4933421E-10    7.5060855E+04    8.2414563E-10    7.5449886E+04
   -2.18   900.000    7.511E-03    6.6975792E+04    2.9391620E-10    2.5841841E-10    6.6975792E+04    8.2853429E-10    6.7323841E+04
   -2.17   900.000    6.614E-03    5.9797399E+04    3.0325154E-10    2.7162765E-10    5.9797399E+04    8.4526482E-10    6.0108207E+04
   -2.16   900.000    5.811E-03    5.3448427E+04    3.1738914E-10    2.8920475E-10    5.3448427E+04    8.7486359E-10    5.3725512E+04
   -2.15   900.000    5.092E-03    4.7857226E+04    3.3659690E-10    3.1145602E-10    4.7857226E+04    9.1801431E-10    4.8103871E+04
   -2.14   900.000    4.448E-03    4.2958007E+04    3.6121481E-10    3.3875697E-10    4.2958007E+04    9.7557575E-10    4.3177252E+04
   -2.13   900.000    3.870E-03    3.8690972E+04    3.9166143E-10    3.7155868E-10    3.8690972E+04    1.0486007E-09    3.8885621E+04
   -2.12   900.000    3.350E-03    3.5002349E+04    4.2844104E-10    4.1039500E-10    3.5002349E+04    1.1383564E-09    3.5174968E+04
   -2.11   900.000    2.880E-03    3.1844341E+04    4.7215168E-10    4.5589056E-10    3.1844341E+04    1.2463468E-09    3.1997271E+04
   -2.10   900.000    2.455E-03    2.9175019E+04    5.2349403E-10    5.0876973E-10    2.9175019E+04    1.3743366E-09    2.9310384E+04
   -2.09   900.000    2.068E-03    2.6958184E+04    5.8328127E-10    5.6986656E-10    2.6958184E+04    1.5243776E-09    2.7077908E+04
   -2.08   900.000    1.713E-03    2.5163210E+04    6.5244995E-10    6.4013570E-10    2.5163210E+04    1.6988369E-09    2.5269023E+04
   -2.07   900.000    1.385E-03    2.3764871E+04    7.3207187E-10    7.2066444E-10    2.3764871E+04    1.9004281E-09    2.3858332E+04
   -2.06   900.000    1.079E-03    2.2743190E+04    8.2336695E-10    8.1268566E-10    2.2743190E+04    2.1322440E-09    2.2825694E+04
   -2.05   900.000    7.906E-04    2.2083292E+04    9.2771707E-10    9.1759175E-10    2.2083292E+04    2.3977919E-09    2.2156087E+04
   -2.04   900.000    5.146E-04    2.1775276E+04    1.0466807E-09    1.0369494E-09    2.1775276E+04    2.7010309E-09    2.1839477E+04
   -2.03   900.000    2.472E-04    2.1814122E+04    1.1820083E-09    1.1725147E-09    2.1814122E+04    3.0464095E-09    2.1870721E+04
   -2.02   900.000   -1.587E-05    2.2199612E+04    1.3356577E-09    1.3262493E-09    2.2199612E+04    3.4389051E-09    2.2249493E+04
   -2.01   900.000   -2.785E-04    2.2936286E+04    1.5098097E-09    1.5003354E-09    2.2936286E+04    3.8840617E-09    2.2980232E+04
   -2.00   900.000   -5.447E-04    2.4033411E+04    1.7068831E-09    1.6971910E-09    2.4033411E+04    4.3880262E-09    2.4072117E+04
   -1.99   900.000   -8.185E-04    2.5504979E+04    1.9295483E-09    1.9194834E-09    2.5504979E+04    4.9575806E-09    2.5539063E+04
   -1.98   900.000   -1.104E-03    2.7369714E+04    2.1807385E-09    2.1701409E-09    2.7369714E+04    5.6001683E-09    2.7399722E+04
   -1.97   900.000   -1.405E-03    2.9651087E+04    2.4636582E-09    2.4523604E-09    2.9651087E+04    6.3239106E-09    2.9677500E+04
   -1.96   900.000   -1.726E-03    3.2377317E+04    2.7817867E-09    2.7696117E-09    3.2377317E+04    7.1376112E-09    3.2400563E+04
   -1.95   900.000   -2.071E-03    3.5581374E+04    3.1388756E-09    3.1256344E-09    3.5581374E+04    8.0507437E-09    3.5601829E+04
   -1.94   900.000   -2.445E-03    3.9300935E+04    3.5389390E-09    3.5244281E-09    3.9300935E+04    9.0734186E-09    3.9318932E+04
   -1.93   900.000   -2.852E-03    4.3578306E+04    3.9862335E-09    3.9702324E-09    4.3578306E+04    1.0216324E-08    4.3594140E+04
   -1.92   900.000   -3.298E-03    4.8460287E+04    4.4852272E-09    4.4674961E-09    4.8460287E+04    1.1490633E-08    4.8474215E+04
   -1.91   900.000   -3.787E-03    5.3997954E+04    5.0405557E-09    5.0208326E-09    5.3997954E+04    1.2907883E-08    5.4010205E+04
   -1.90   900.000   -4.325E-03    6.0246356E+04    5.6569626E-09    5.6349607E-09    6.0246356E+04    1.4479805E-08    6.0257131E+04
   -1.89   900.000   -4.917E-03    6.7264114E+04    6.3392245E-09    6.3146295E-09    6.7264114E+04    1.6218117E-08    6.7273590E+04
   -1.88   900.000   -5.569E-03    7.5112902E+04    7.0920600E-09    7.0645273E-09    7.5112902E+04    1.8134272E-08    7.5121235E+04
   -1.87   900.000   -6.287E-03    8.3856812E+04    7.9200220E-09    7.8891744E-09    8.3856812E+04    2.0239165E-08    8.3864139E+04
   -1.86   900.000   -7.076E-03    9.3561613E+04    8.8273773E-09    8.7928022E-09    9.3561613E+04    2.2542806E-08    9.3568057E+04
   -1.85   900.000   -7.943E-03    1.0429390E+05    9.8179751E-09    9.7792226E-09    1.0429390E+05    2.5053963E-08    1.0429956E+05
   -1.84   900.000   -8.892E-03    1.1612015E+05    1.0895111E-08    1.0851692E-08    1.1612015E+05    2.7779801E-08    1.1612513E+05
   -1.83   900.000   -9.931E-03    1.2910572E+05    1.2061391E-08    1.2012776E-08    1.2910572E+05    3.0725527E-08    1.2911010E+05
   -1.82   900.000   -1.106E-02    1.4331385E+05    1.3318610E-08    1.3264227E-08    1.4331385E+05    3.3894072E-08    1.4331770E+05
   -1.81   900.000   -1.230E-02    1.5880458E+05    1.4667642E-08    1.4606881E-08    1.5880458E+05    3.7285829E-08    1.5880797E+05
   -1.80   900.000   -1.363E-02    1.7563385E+05    1.6108368E-08    1.6040575E-08    1.7563385E+05    4.0898481E-08    1.7563683E+05
   -1.79   900.000   -1.508E-02    1.9385255E+05    1.7639629E-08    1.7564116E-08    1.9385255E+05    4.4726947E-08    1.9385517E+05
   -1.78   900.000   -1.664E-02    2.1350580E+05    1.9259235E-08    1.9175276E-08    2.1350580E+05    4.8763439E-08    2.1350810E+05
   -1.77   900.000   -1.831E-02    2.3463229E+05    2.0964003E-08    2.0870844E-08    2.3463229E+05    5.2997670E-08    2.3463432E+05
   -1.76   900.000   -2.011E-02    2.5726392E+05    2.2749848E-08    2.2646711E-08    2.5726392E+05    5.7417169E-08    2.5726570E+05
   -1.75   900.000   -2.203E-02    2.8142546E+05    2.4611905E-08    2.4497997E-08    2.8142546E+05    6.2007708E-08    2.8142702E+05
   -1.74   900.000   -2.407E-02    3.0713453E+05    2.6544672E-08    2.6419195E-08    3.0713453E+05    6.6753783E-08    3.0713590E+05
   -1.73   900.000   -2.624E-02    3.3440169E+05    2.8542167E-08    2.8404331E-08    3.3440169E+05    7.1639114E-08    3.3440289E+05
   -1.72   900.000   -2.854E-02    3.6323071E+05    3.0598076E-08    3.0447115E-08    3.6323071E+05    7.6647116E-08    3.6323177E+05
   -1.71   900.000   -3.096E-02    3.9361899E+05    3.2705890E-08    3.2541082E-08    3.9361899E+05    8.1761301E-08    3.9361992E+05
   -1.70   900.000   -3.352E-02    4.2555800E+05    3.4859021E-08    3.4679707E-08    4.2555800E+05    8.6965592E-08    4.2555882E+05
   -1.69   900.000   -3.620E-02    4.5903397E+05    3.7050896E-08    3.6856509E-08    4.5903397E+05    9.2244549E-08    4.5903469E+05
   -1.68   900.000   -3.900E-02    4.9402844E+05    3.9275045E-08    3.9065135E-08    4.9402844E+05    9.7583538E-08    4.9402908E+05
   -1.67   900.000   -4.194E-02    5.3051897E+05    4.1525189E-08    4.1299454E-08    5.3051897E+05    1.0296888E-07    5.3051953E+05
   -1.66   900.000   -4.500E-02    5.6847979E+05    4.3795347E-08    4.3553665E-08    5.6847979E+05    1.0838803E-07    5.6848029E+05
   -1.65   900.000   -4.818E-02    6.0788247E+05    4.6079970E-08    4.5822427E-08    6.0788247E+05    1.1382985E-07    6.0788290E+05
   -1.64   900.000   -5.149E-02    6.4869649E+05    4.8374103E-08    4.8101025E-08    6.4869649E+05    1.1928493E-07    6.4869687E+05
   -1.63   900.000   -5.492E-02    6.9088988E+05    5.0673573E-08    5.0385552E-08    6.9088988E+05    1.2474608E-07    6.9089021E+05
   -1.62   900.000   -5.847E-02    7.3442968E+05    5.2975176E-08    5.2673089E-08    7.3442968E+05    1.3020872E-07    7.3442998E+05
   -1.61   900.000   -6.213E-02    7.7928246E+05    5.5276835E-08    5.4961864E-08    7.7928246E+05    1.3567138E-07    7.7928272E+05
   -1.60   900.000   -6.591E-02    8.2541468E+05    5.7577706E-08    5.7251342E-08    8.2541468E+05    1.4113595E-07    8.2541491E+05
   -1.59   900.000   -6.981E-02    8.7279301E+05    5.9878193E-08    5.9542235E-08    8.7279301E+05    1.4660776E-07    8.7279321E+05
   -1.58   900.000   -7.382E-02    9.2138462E+05    6.2179853E-08    6.1836401E-08    9.2138462E+05    1.5209538E-07    9.2138480E+05
   -1.57   900.000   -7.793E-02    9.7115730E+05    6.4485194E-08    6.4136629E-08    9.7115730E+05    1.5761004E-07    9.7115745E+05
   -1.56   900.000   -8.216E-02    1.0220795E+06    6.6797356E-08    6.6446318E-08    1.0220795E+06    1.6316478E-07    1.0220797E+06
   -1.55   900.000   -8.650E-02    1.0741206E+06    6.9119709E-08    6.8769065E-08    1.0741206E+06    1.6877328E-07    1.0741207E+06
   -1.54   900.000   -9.094E-02    1.1272503E+06    7.1455389E-08    7.1108202E-08    1.1272503E+06    1.7444848E-07    1.1272504E+06
   -1.53   900.000   -9.549E-02    1.1814393E+06    7.3806812E-08    7.3466310E-08    1.1814393E+06    1.8020110E-07    1.1814394E+06
   -1.52   900.000   -1.001E-01    1.2366587E+06    7.6175207E-08    7.5844747E-08    1.2366587E+06    1.8603813E-07    1.2366588E+06
   -1.51   900.000   -1.049E-01    1.2928801E+06    7.8560193E-08    7.8243235E-08    1.2928801E+06    1.9196151E-07    1.2928801E+06
   -1.50   900.000   -1.097E-01    1.3500754E+06    8.0959455E-08    8.0659540E-08    1.3500754E+06    1.9796702E-07    1.3500755E+06
   -1.49   900.000   -1.147E-01    1.4082173E+06    8.3368525E-08    8.3089254E-08    1.4082173E+06    2.0404345E-07    1.4082173E+06
   -1.48   900.000   -1.197E-01    1.4672786E+06    8.5780713E-08    8.5525733E-08    1.4672786E+06    2.1017237E-07    1.4672787E+06
   -1.47   900.000   -1.249E-01    1.5272330E+06    8.8187177E-08    8.7960167E-08    1.5272330E+06    2.1632825E-07    1.5272330E+06
   -1.46   900.000   -1.301E-01    1.5880542E+06    9.0577159E-08    9.0381820E-08    1.5880542E+06    2.2247915E-07    1.5880542E+06
   -1.45   900.000   -1.355E-01    1.6497168E+06    9.2938366E-08    9.2778407E-08    1.6497168E+06    2.2858797E-07    1.6497169E+06
   -1.44   900.000   -1.409E-01    1.7121957E+06    9.5257473E-08    9.5136603E-08    1.7121957E+06    2.3461401E-07    1.7121958E+06
   -1.43   900.000   -1.464E-01    1.7754661E+06    9.7520727E-08    9.7442638E-08    1.7754661E+06    2.4051495E-07    1.7754661E+06
   -1.42   900.000   -1.520E-01    1.8395031E+06    9.9714599E-08    9.9682950E-08    1.8395031E+06    2.4624888E-07    1.8395032E+06
   -1.41   900.000   -1.577E-01    1.9042824E+06    1.0182643E-07    1.0184483E-07    1.9042824E+06    2.5177643E-07    1.9042824E+06
   -1.40   900.000   -1.635E-01    1.9697790E+06    1.0384503E-07    1.0391703E-07    1.9697790E+06    2.5706263E-07    1.9697791E+06
   -1.39   900.000   -1.694E-01    2.0359684E+06    1.0576119E-07    1.0589022E-07    2.0359684E+06    2.6207849E-07    2.0359685E+06
   -1.38   900.000   -1.754E-01    2.1028257E+06    1.0756800E-07    1.0775739E-07    2.1028257E+06    2.6680214E-07    2.1028257E+06
   -1.37   900.000   -1.815E-01    2.1703261E+06    1.0926112E-07    1.0951407E-07    2.1703261E+06    2.7121949E-07    2.1703262E+06
   -1.36   900.000   -1.876E-01    2.2384452E+06    1.1083878E-07    1.1115831E-07    2.2384452E+06    2.7532436E-07    2.2384453E+06
   -1.35   900.000   -1.939E-01    2.3071590E+06    1.1230172E-07    1.1269064E-07    2.3071590E+06    2.7911822E-07    2.3071590E+06
   -1.34   900.000   -2.002E-01    2.3764439E+06    1.1365294E-07    1.1411385E-07    2.3764439E+06    2.8260942E-07    2.3764440E+06
   -1.33   900.000   -2.066E-01    2.4462777E+06    1.1489738E-07    1.1543261E-07    2.4462777E+06    2.8581222E-07    2.4462778E+06
   -1.32   900.000   -2.131E-01    2.5166387E+06    1.1604156E-07    1.1665314E-07    2.5166387E+06    2.8874548E-07    2.5166388E+06
   -1.31   900.000   -2.197E-01    2.5875066E+06    1.1709311E-07    1.1778277E-07    2.5875066E+06    2.9143126E-07    2.5875067E+06
   -1.30   900.000   -2.264E-01    2.6588625E+06    1.1806042E-07    1.1882951E-07    2.6588625E+06    2.9389330E-07    2.6588626E+06
   -1.29   900.000   -2.331E-01    2.7306886E+06    1.1895216E-07    1.1980168E-07    2.7306886E+06    2.9615560E-07    2.7306887E+06
   -1.28   900.000   -2.400E-01    2.8029682E+06    1.1977702E-07    1.2070757E-07    2.8029682E+06    2.9824109E-07    2.8029684E+06
   -1.27   900.000   -2.469E-01    2.8756862E+06    1.2054342E-07    1.2155516E-07    2.8756862E+06    3.0017056E-07    2.8756863E+06
   -1.26   900.000   -2.539E-01    2.9488280E+06    1.2125934E-07    1.2235200E-07    2.9488280E+06    3.0196191E-07    2.9488282E+06
   -1.25   900.000   -2.610E-01    3.0223804E+06    1.2193230E-07    1.2310514E-07    3.0223804E+06    3.0362983E-07    3.0223806E+06
   -1.24   900.000   -2.682E-01    3.0963305E+06    1.2256937E-07    1.2382120E-07    3.0963305E+06    3.0518595E-07    3.0963308E+06
   -1.23   900.000   -2.755E-01    3.1706664E+06    1.2317734E-07    1.2450650E-07    3.1706664E+06    3.0663938E-07    3.1706666E+06
   -1.22   900.000   -2.829E-01    3.2453763E+06    1.2376295E-07    1.2516730E-07    3.2453763E+06    3.0799779E-07    3.2453766E+06
   -1.21   900.000   -2.903E-01    3.3204491E+06    1.2433311E-07    1.2581008E-07    3.3204491E+06    3.0926871E-07    3.3204495E+06
   -1.20   900.000   -2.978E-01    3.3958738E+06    1.2489522E-07    1.2644180E-07    3.3958738E+06    3.1046113E-07    3.3958742E+06
   -1.19   900.000   -3.054E-01    3.4716398E+06    1.2545743E-07    1.2707021E-07    3.4716398E+06    3.1158701E-07    3.4716403E+06
   -1.18   900.000   -3.131E-01    3.5477366E+06    1.2602878E-07    1.2770399E-07    3.5477366E+06    3.1266278E-07    3.5477371E+06
   -1.17   900.000   -3.209E-01    3.6241540E+06    1.2661934E-07    1.2835291E-07    3.6241540E+06    3.1371038E-07    3.6241546E+06
   -1.16   900.000   -3.288E-01    3.7008820E+06    1.2724014E-07    1.2902773E-07    3.7008820E+06    3.1475791E-07    3.7008827E+06
   -1.15   900.000   -3.368E-01    3.7779106E+06    1.2790299E-07    1.2974004E-07    3.7779106E+06    3.1583957E-07    3.7779114E+06
   -1.14   900.000   -3.448E-01    3.8552298E+06    1.2862009E-07    1.3050191E-07    3.8552298E+06    3.1699500E-07    3.8552308E+06
   -1.13   900.000   -3.529E-01    3.9328296E+06    1.2940364E-07    1.3132542E-07    3.9328296E+06    3.1826788E-07    3.9328306E+06
   -1.12   900.000   -3.612E-01    4.0106991E+06    1.3026513E-07    1.3222202E-07    4.0106991E+06    3.1970407E-07    4.0107003E+06
   -1.11   900.000   -3.695E-01    4.0888269E+06    1.3121476E-07    1.3320193E-07    4.0888269E+06    3.2134917E-07    4.0888282E+06
   -1.10   900.000   -3.779E-01    4.1672001E+06    1.3226078E-07    1.3427348E-07    4.1672001E+06    3.2324597E-07    4.1672017E+06
   -1.09   900.000   -3.864E-01    4.2458045E+06    1.3340888E-07    1.3544249E-07    4.2458045E+06    3.2543189E-07    4.2458062E+06
   -1.08   900.000   -3.949E-01    4.3246237E+06    1.3466175E-07    1.3671183E-07    4.3246237E+06    3.2793659E-07    4.3246256E+06
   -1.07   900.000   -4.036E-01    4.4036392E+06    1.3601875E-07    1.3808112E-07    4.4036392E+06    3.3078012E-07    4.4036415E+06
   -1.06   900.000   -4.124E-01    4.4828307E+06    1.3747584E-07    1.3954658E-07    4.4828307E+06    3.3397163E-07    4.4828332E+06
   -1.05   900.000   -4.212E-01    4.5621751E+06    1.3902568E-07    1.4110116E-07    4.5621751E+06    3.3750882E-07    4.5621781E+06
   -1.04   900.000   -4.301E-01    4.6416481E+06    1.4065795E-07    1.4273486E-07    4.6416481E+06    3.4137813E-07    4.6416515E+06
   -1.03   900.000   -4.392E-01    4.7212236E+06    1.4235989E-07    1.4443518E-07    4.7212236E+06    3.4555579E-07    4.7212274E+06
   -1.02   900.000   -4.483E-01    4.8008746E+06    1.4411698E-07    1.4618784E-07    4.8008746E+06    3.5000945E-07    4.8008789E+06
   -1.01   900.000   -4.575E-01    4.8805740E+06    1.4591375E-07    1.4797753E-07    4.8805740E+06    3.5470046E-07    4.8805789E+06
   -1.00   900.000   -4.669E-01    4.9602950E+06    1.4773463E-07    1.4978881E-07    4.9602950E+06    3.5958646E-07    4.9603006E+06
   -0.99   900.000   -4.763E-01    5.0400122E+06    1.4956479E-07    1.5160689E-07    5.0400122E+06    3.6462415E-07    5.0400185E+06
   -0.98   900.000   -4.858E-01    5.1197014E+06    1.5139090E-07    1.5341842E-07    5.1197014E+06    3.6977189E-07    5.1197086E+06
   -0.97   900.000   -4.954E-01    5.1993408E+06    1.5320171E-07    1.5521211E-07    5.1993408E+06    3.7499195E-07    5.1993490E+06
   -0.96   900.000   -5.052E-01    5.2789105E+06    1.5498832E-07    1.5697900E-07    5.2789105E+06    3.8025214E-07    5.2789198E+06
   -0.95   900.000   -5.150E-01    5.3583922E+06    1.5674433E-07    1.5871265E-07    5.3583922E+06    3.8552661E-07    5.3584028E+06
   -0.94   900.000   -5.249E-01    5.4377691E+06    1.5846549E-07    1.6040882E-07    5.4377691E+06    3.9079579E-07    5.4377812E+06
   -0.93   900.000   -5.350E-01    5.5170246E+06    1.6014923E-07    1.6206502E-07    5.5170246E+06    3.9604555E-07    5.5170384E+06
   -0.92   900.000   -5.451E-01    5.5961412E+06    1.6179391E-07    1.6367981E-07    5.5961412E+06    4.0126551E-07    5.5961569E+06
   -0.91   900.000   -5.554E-01    5.6750997E+06    1.6339798E-07    1.6525194E-07    5.6750997E+06    4.0644697E-07    5.6751175E+06
   -0.90   900.000   -5.657E-01    5.7538776E+06    1.6495910E-07    1.6677950E-07    5.7538776E+06    4.1158065E-07    5.7538979E+06
   -0.89   900.000   -5.762E-01    5.8324488E+06    1.6647339E-07    1.6825916E-07    5.8324488E+06    4.1665444E-07    5.8324718E+06
   -0.88   900.000   -5.868E-01    5.9107823E+06    1.6793486E-07    1.6968559E-07    5.9107823E+06    4.2165168E-07    5.9108085E+06
   -0.87   900.000   -5.976E-01    5.9888423E+06    1.6933508E-07    1.7105113E-07    5.9888423E+06    4.2654996E-07    5.9888722E+06
   -0.86   900.000   -6.084E-01    6.0665875E+06    1.7066316E-07    1.7234574E-07    6.0665875E+06    4.3132070E-07    6.0666214E+06
   -0.85   900.000   -6.194E-01    6.1439711E+06    1.7190601E-07    1.7355722E-07    6.1439711E+06    4.3592953E-07    6.1440097E+06
   -0.84   900.000   -6.305E-01    6.2209407E+06    1.7304887E-07    1.7467174E-07    6.2209407E+06    4.4033736E-07    6.2209846E+06
   -0.83   900.000   -6.417E-01    6.2974380E+06    1.7407596E-07    1.7567446E-07    6.2974380E+06    4.4450202E-07    6.2974880E+06
   -0.82   900.000   -6.530E-01    6.3733993E+06    1.7497140E-07    1.7655040E-07    6.3733993E+06    4.4838037E-07    6.3734561E+06
   -0.81   900.000   -6.645E-01    6.4487544E+06    1.7571998E-07    1.7728522E-07    6.4487544E+06    4.5193048E-07    6.4488190E+06
   -0.80   900.000   -6.761E-01    6.5234280E+06    1.7630813E-07    1.7786606E-07    6.5234280E+06    4.5511386E-07    6.5235015E+06
   -0.79   900.000   -6.878E-01    6.5973391E+06    1.7672457E-07    1.7828230E-07    6.5973391E+06    4.5789745E-07    6.5974226E+06
   -0.78   900.000   -6.997E-01    6.6704021E+06    1.7696101E-07    1.7852607E-07    6.6704021E+06    4.6025515E-07    6.6704971E+06
   -0.77   900.000   -7.117E-01    6.7425279E+06    1.7701252E-07    1.7859273E-07    6.7425279E+06    4.6216901E-07    6.7426359E+06
   -0.76   900.000   -7.239E-01    6.8136252E+06    1.7687780E-07    1.7848096E-07    6.8136252E+06    4.6362966E-07    6.8137480E+06
   -0.75   900.000   -7.362E-01    6.8836016E+06    1.7655910E-07    1.7819279E-07    6.8836016E+06    4.6463634E-07    6.8837412E+06
   -0.74   900.000   -7.486E-01    6.9523655E+06    1.7606205E-07    1.7773337E-07    6.9523655E+06    4.6519632E-07    6.9525242E+06
   -0.73   900.000   -7.612E-01    7.0198270E+06    1.7539521E-07    1.7711052E-07    7.0198270E+06    4.6532382E-07    7.0200074E+06
   -0.72   900.000   -7.739E-01    7.0858988E+06    1.7456946E-07    1.7633415E-07    7.0858988E+06    4.6503870E-07    7.0861037E+06
   -0.71   900.000   -7.867E-01    7.1504967E+06    1.7359736E-07    1.7541570E-07    7.1504967E+06    4.6436482E-07    7.1507296E+06
   -0.70   900.000   -7.997E-01    7.2135398E+06    1.7249237E-07    1.7436738E-07    7.2135398E+06    4.6332843E-07    7.2138044E+06
   -0.69   900.000   -8.128E-01    7.2749497E+06    1.7126821E-07    1.7320159E-07    7.2749497E+06    4.6195669E-07    7.2752503E+06
   -0.68   900.000   -8.261E-01    7.3346504E+06    1.6993820E-07    1.7193038E-07    7.3346504E+06    4.6027643E-07    7.3349918E+06
   -0.67   900.000   -8.394E-01    7.3925676E+06    1.6851483E-07    1.7056506E-07    7.3925676E+06    4.5831328E-07    7.3929552E+06
   -0.66   900.000   -8.529E-01    7.4486280E+06    1.6700951E-07    1.6911598E-07    7.4486280E+06    4.5609132E-07    7.4490680E+06
   -0.65   900.000   -8.665E-01    7.5027595E+06    1.6543246E-07    1.6759256E-07    7.5027595E+06    4.5363303E-07    7.5032588E+06
   -0.64   900.000   -8.802E-01    7.5548911E+06    1.6379284E-07    1.6600332E-07    7.5548911E+06    4.5095976E-07    7.5554576E+06
   -0.63   900.000   -8.940E-01    7.6049530E+06    1.6209896E-07    1.6435620E-07    7.6049530E+06    4.4809233E-07    7.6055953E+06
   -0.62   900.000   -9.079E-01    7.6528768E+06    1.6035861E-07    1.6265878E-07    7.6528768E+06    4.4505169E-07    7.6536050E+06
   -0.61   900.000   -9.219E-01    7.6985961E+06    1.5857931E-07    1.6091860E-07    7.6985961E+06    4.4185956E-07    7.6994211E+06
   -0.60   900.000   -9.359E-01    7.7420461E+06    1.5676865E-07    1.5914334E-07    7.7420461E+06    4.3853877E-07    7.7429802E+06
   -0.59   900.000   -9.501E-01    7.7831634E+06    1.5493437E-07    1.5734091E-07    7.7831634E+06    4.3511331E-07    7.7842205E+06
   -0.58   900.000   -9.643E-01    7.8218862E+06    1.5308444E-07    1.5551949E-07    7.8218862E+06    4.3160809E-07    7.8230816E+06
   -0.57   900.000   -9.786E-01    7.8581537E+06    1.5122698E-07    1.5368736E-07    7.8581537E+06    4.2804836E-07    7.8595044E+06
   -0.56   900.000   -9.929E-01    7.8919064E+06    1.4937009E-07    1.5185277E-07    7.8919064E+06    4.2445908E-07    7.8934313E+06
   -0.55   900.000   -1.007E+00    7.9230867E+06    1.4752164E-07    1.5002368E-07    7.9230867E+06    4.2086422E-07    7.9248066E+06
   -0.54   900.000   -1.022E+00    7.9516402E+06    1.4568912E-07    1.4820764E-07    7.9516402E+06    4.1728620E-07    7.9535778E+06
   -0.53   900.000   -1.036E+00    7.9775177E+06    1.4387947E-07    1.4641163E-07    7.9775177E+06    4.1374564E-07    7.9796977E+06
   -0.52   900.000   -1.051E+00    8.0006775E+06    1.4209905E-07    1.4464206E-07    8.0006775E+06    4.1026138E-07    8.0031268E+06
   -0.51   900.000   -1.065E+00    8.0210883E+06    1.4035368E-07    1.4290486E-07    8.0210883E+06    4.0685076E-07    8.0238359E+06
   -0.50   900.000   -1.079E+00    8.0387320E+06    1.3864882E-07    1.4120562E-07    8.0387320E+06    4.0353024E-07    8.0418089E+06
   -0.49   900.000   -1.094E+00    8.0536057E+06    1.3698975E-07    1.3954987E-07    8.0536057E+06    4.0031608E-07    8.0570446E+06
   -0.48   900.000   -1.108E+00    8.0657235E+06    1.3538186E-07    1.3794327E-07    8.0657235E+06    3.9722504E-07    8.0695585E+06
   -0.47   900.000   -1.123E+00    8.0751161E+06    1.3383082E-07    1.3639189E-07    8.0751161E+06    3.9427488E-07    8.0793828E+06
   -0.46   900.000   -1.137E+00    8.0818311E+06    1.3234279E-07    1.3490229E-07    8.0818311E+06    3.9148465E-07    8.0865655E+06
   -0.45   900.000   -1.152E+00    8.0859307E+06    1.3092442E-07    1.3348159E-07    8.0859307E+06    3.8887454E-07    8.0911690E+06
   -0.44   900.000   -1.166E+00    8.0874899E+06    1.2958282E-07    1.3213737E-07    8.0874899E+06    3.8646546E-07    8.0932673E+06
   -0.43   900.000   -1.180E+00    8.0865937E+06    1.2832533E-07    1.3087743E-07    8.0865937E+06    3.8427819E-07    8.0929440E+06
   -0.42   900.000   -1.194E+00    8.0833352E+06    1.2715925E-07    1.2970951E-07    8.0833352E+06    3.8233229E-07    8.0902895E+06
   -0.41   900.000   -1.209E+00    8.0778142E+06    1.2609136E-07    1.2864081E-07    8.0778142E+06    3.8064492E-07    8.0853994E+06
   -0.40   900.000   -1.223E+00    8.0701358E+06    1.2512757E-07    1.2767763E-07    8.0701358E+06    3.7922953E-07    8.0783741E+06
   -0.39   900.000   -1.237E+00    8.0604108E+06    1.2427242E-07    1.2682484E-07    8.0604108E+06    3.7809478E-07    8.0693179E+06
   -0.38   900.000   -1.251E+00    8.0487561E+06    1.2352871E-07    1.2608554E-07    8.0487561E+06    3.7724359E-07    8.0583403E+06
   -0.37   900.000   -1.265E+00    8.0352948E+06    1.2289717E-07    1.2546075E-07    8.0352948E+06    3.7667247E-07    8.0455562E+06
   -0.36   900.000   -1.279E+00    8.0201574E+06    1.2237622E-07    1.2494913E-07    8.0201574E+06    3.7637117E-07    8.0310867E+06
   -0.35   900.000   -1.293E+00    8.0034806E+06    1.2196188E-07    1.2454691E-07    8.0034806E+06    3.7632271E-07    8.0150590E+06
   -0.34   900.000   -1.307E+00    7.9854063E+06    1.2164774E-07    1.2424790E-07    7.9854063E+06    3.7650358E-07    7.9976051E+06
   -0.33   900.000   -1.320E+00    7.9660793E+06    1.2142510E-07    1.2404358E-07    7.9660793E+06    3.7688435E-07    7.9788603E+06
   -0.32   900.000   -1.334E+00    7.9456439E+06    1.2128317E-07    1.2392331E-07    7.9456439E+06    3.7743041E-07    7.9589602E+06
   -0.31   900.000   -1.348E+00    7.9242406E+06    1.2120935E-07    1.2387463E-07    7.9242406E+06    3.7810288E-07    7.9380374E+06
   -0.30   900.000   -1.361E+00    7.9020024E+06    1.2118960E-07    1.2388363E-07    7.9020024E+06    3.7885972E-07    7.9162185E+06
   -0.29   900.000   -1.375E+00    7.8790523E+06    1.2120884E-07    1.2393530E-07    7.8790523E+06    3.7965683E-07    7.8936216E+06
   -0.28   900.000   -1.389E+00    7.8555007E+06    1.2125138E-07    1.2401402E-07    7.8555007E+06    3.8044923E-07    7.8703542E+06
   -0.27   900.000   -1.402E+00    7.8314462E+06    1.2130137E-07    1.2410394E-07    7.8314462E+06    3.8119229E-07    7.8465136E+06
   -0.26   900.000   -1.416E+00    7.8069756E+06    1.2134316E-07    1.2418938E-07    7.8069756E+06    3.8184277E-07    7.8221870E+06
   -0.25   900.000   -1.430E+00    7.7821671E+06    1.2136172E-07    1.2425523E-07    7.7821671E+06    3.8235996E-07    7.7974547E+06
   -0.24   900.000   -1.443E+00    7.7570933E+06    1.2134295E-07    1.2428722E-07    7.7570933E+06    3.8270664E-07    7.7723928E+06
   -0.23   900.000   -1.457E+00    7.7318253E+06    1.2127394E-07    1.2427227E-07    7.7318253E+06    3.8284996E-07    7.7470768E+06
   -0.22   900.000   -1.471E+00    7.7064358E+06    1.2114323E-07    1.2419862E-07    7.7064358E+06    3.8276218E-07    7.7215850E+06
   -0.21   900.000   -1.485E+00    7.6810024E+06    1.2094094E-07    1.2405610E-07    7.6810024E+06    3.8242130E-07    7.6960005E+06
   -0.20   900.000   -1.499E+00    7.6556078E+06    1.2065895E-07    1.2383619E-07    7.6556078E+06    3.8181153E-07    7.6704122E+06
   -0.19   900.000   -1.513E+00    7.6303397E+06    1.2029100E-07    1.2353221E-07    7.6303397E+06    3.8092362E-07    7.6449140E+06
   -0.18   900.000   -1.527E+00    7.6052886E+06    1.1983279E-07    1.2313939E-07    7.6052886E+06    3.7975498E-07    7.6196023E+06
   -0.17   900.000   -1.541E+00    7.5805440E+06    1.1928207E-07    1.2265497E-07    7.5805440E+06    3.7830979E-07    7.5945721E+06
   -0.16   900.000   -1.556E+00    7.5561903E+06    1.1863882E-07    1.2207833E-07    7.5561903E+06    3.7659901E-07    7.5699130E+06
   -0.15   900.000   -1.570E+00    7.5323038E+06    1.1790531E-07    1.2141115E-07    7.5323038E+06    3.7464035E-07    7.5457059E+06
   -0.14   900.000   -1.585E+00    7.5089504E+06    1.1708641E-07    1.2065757E-07    7.5089504E+06    3.7245840E-07    7.5220209E+06
   -0.13   900.000   -1.600E+00    7.4861859E+06    1.1618972E-07    1.1982448E-07    7.4861859E+06    3.7008480E-07    7.4989173E+06
   -0.12   900.000   -1.615E+00    7.4640586E+06    1.1522592E-07    1.1892172E-07    7.4640586E+06    3.6755865E-07    7.4764464E+06
   -0.11   900.000   -1.630E+00    7.4426147E+06    1.1420902E-07    1.1796244E-07    7.4426147E+06    3.6492693E-07    7.4546569E+06
   -0.10   900.000   -1.646E+00    7.4219049E+06    1.1315660E-07    1.1696333E-07    7.4219049E+06    3.6224506E-07    7.4336017E+06
   -0.09   900.000   -1.661E+00    7.4019924E+06    1.1209004E-07    1.1594484E-07    7.4019924E+06    3.5957733E-07    7.4133457E+06
   -0.08   900.000   -1.677E+00    7.3829595E+06    1.1103458E-07    1.1493131E-07    7.3829595E+06    3.5699715E-07    7.3939726E+06
   -0.07   900.000   -1.694E+00    7.3649129E+06    1.1001926E-07    1.1395097E-07    7.3649129E+06    3.5458705E-07    7.3755903E+06
   -0.06   900.000   -1.710E+00    7.3479860E+06    1.0907676E-07    1.1303574E-07    7.3479860E+06    3.5243825E-07    7.3583329E+06
   -0.05   900.000   -1.727E+00    7.3323377E+06    1.0824294E-07    1.1222091E-07    7.3323377E+06    3.5064978E-07    7.3423599E+06
   -0.04   900.000   -1.744E+00    7.3181480E+06    1.0755640E-07    1.1154464E-07    7.3181480E+06    3.4932728E-07    7.3278522E+06
   -0.03   900.000   -1.761E+00    7.3056115E+06    1.0705776E-07    1.1104732E-07    7.3056115E+06    3.4858129E-07    7.3150044E+06
   -0.02   900.000   -1.778E+00    7.2949280E+06    1.0678888E-07    1.1077080E-07    7.2949280E+06    3.4852528E-07    7.3040169E+06
   -0.01   900.000   -1.796E+00    7.2862943E+06    1.0679202E-07    1.1075754E-07    7.2862943E+06    3.4927341E-07    7.2950868E+06
    0.00   900.000   -1.814E+00    7.2798954E+06    1.0710886E-07    1.1104957E-07    7.2798954E+06    3.5093795E-07    7.2883994E+06
    0.01   900.000   -1.832E+00    7.2758988E+06    1.0777946E-07    1.1168755E-07    7.2758988E+06    3.5362661E-07    7.2841223E+06
    0.02   900.000   -1.850E+00    7.2744495E+06    1.0884115E-07    1.1270952E-07    7.2744495E+06    3.5743944E-07    7.2824011E+06
    0.03   900.000   -1.868E+00    7.2756690E+06    1.1032737E-07    1.1414974E-07    7.2756690E+06    3.6246567E-07    7.2833574E+06
    0.04   900.000   -1.887E+00    7.2796552E+06    1.1226629E-07    1.1603730E-07    7.2796552E+06    3.6878009E-07    7.2870895E+06
    0.05   900.000   -1.906E+00    7.2864828E+06    1.1467951E-07    1.1839477E-07    7.2864828E+06    3.7643924E-07    7.2936725E+06
    0.06   900.000   -1.925E+00    7.2962039E+06    1.1758054E-07    1.2123663E-07    7.2962039E+06    3.8547737E-07    7.3031587E+06
    0.07   900.000   -1.944E+00    7.3088461E+06    1.2097338E-07    1.2456782E-07    7.3088461E+06    3.9590222E-07    7.3155760E+06
    0.08   900.000   -1.963E+00    7.3244077E+06    1.2485096E-07    1.2838221E-07    7.3244077E+06    4.0769075E-07    7.3309230E+06
    0.09   900.000   -1.983E+00    7.3428486E+06    1.2919387E-07    1.3266120E-07    7.3428486E+06    4.2078516E-07    7.3491597E+06
    0.10   900.000   -2.003E+00    7.3640776E+06    1.3396914E-07    1.3737260E-07    7.3640776E+06    4.3508946E-07    7.3701951E+06
    0.11   900.000   -2.023E+00    7.3879354E+06    1.3912945E-07    1.4246975E-07    7.3879354E+06    4.5046683E-07    7.3938697E+06
    0.12   900.000   -2.043E+00    7.4141747E+06    1.4461280E-07    1.4789121E-07    7.4141747E+06    4.6673842E-07    7.4199362E+06
    0.13   900.000   -2.063E+00    7.4424404E+06    1.5034279E-07    1.5356102E-07    7.4424404E+06    4.8368375E-07    7.4480391E+06
    0.14   900.000   -2.083E+00    7.4722493E+06    1.5622958E-07    1.5938972E-07    7.4722493E+06    5.0104336E-07    7.4776949E+06
    0.15   900.000   -2.104E+00    7.5029738E+06    1.6217175E-07    1.6527611E-07    7.5029738E+06    5.1852354E-07    7.5082754E+06
    0.16   900.000   -2.125E+00    7.5338302E+06    1.6805883E-07    1.7110989E-07    7.5338302E+06    5.3580357E-07    7.5389966E+06
    0.17   900.000   -2.146E+00    7.5638733E+06    1.7377465E-07    1.7677490E-07    7.5638733E+06    5.5254503E-07    7.5689126E+06
    0.18   900.000   -2.167E+00    7.5919984E+06    1.7920116E-07    1.8215304E-07    7.5919984E+06    5.6840274E-07    7.5969180E+06
    0.19   900.000   -2.188E+00    7.6169501E+06    1.8422260E-07    1.8712836E-07    7.6169501E+06    5.8303675E-07    7.6217569E+06
    0.20   900.000   -2.210E+00    7.6373391E+06    1.8872963E-07    1.9159123E-07    7.6373391E+06    5.9612436E-07    7.6420391E+06
# T(K) = 1000.00   Npoints =     441   V(cm^3) =  3.848E-22
   -4.20   *******    9.473E+00    7.2962141E+05    4.6623684E-08    4.6747236E-08    7.2962141E+05    1.1606864E-07    7.2995152E+05
   -4.19   *******    9.422E+00    7.6104797E+05    4.9736536E-08    4.9867051E-08    7.6104797E+05    1.2387119E-07    7.6138359E+05
   -4.18   *******    9.369E+00    7.9237876E+05    5.2919560E-08    5.3056989E-08    7.9237876E+05    1.3185601E-07    7.9271914E+05
   -4.17   *******    9.312E+00    8.2353462E+05    5.6151214E-08    5.6295438E-08    8.2353462E+05    1.3997144E-07    8.2387901E+05
   -4.16   *******    9.251E+00    8.5444909E+05    5.9407034E-08    5.9557860E-08    8.5444909E+05    1.4815892E-07    8.5479674E+05
   -4.15   *******    9.187E+00    8.8507087E+05    6.2660015E-08    6.2817171E-08    8.8507087E+05    1.5635390E-07    8.8542107E+05
   -4.14   *******    9.119E+00    9.1536605E+05    6.5881156E-08    6.6044295E-08    9.1536605E+05    1.6448712E-07    9.1571809E+05
   -4.13   *******    9.048E+00    9.4531981E+05    6.9040168E-08    6.9208861E-08    9.4531981E+05    1.7248636E-07    9.4567299E+05
   -4.12   *******    8.973E+00    9.7493749E+05    7.2106322E-08    7.2280063E-08    9.7493749E+05    1.8027837E-07    9.7529110E+05
   -4.11   *******    8.894E+00    1.0042449E+06    7.5049403E-08    7.5227610E-08    1.0042449E+06    1.8779116E-07    1.0045982E+06
   -4.10   *******    8.812E+00    1.0332876E+06    7.7840737E-08    7.8022752E-08    1.0332876E+06    1.9495639E-07    1.0336400E+06
   -4.09   *******    8.727E+00    1.0621294E+06    8.0454221E-08    8.0639318E-08    1.0621294E+06    2.0171176E-07    1.0624800E+06
   -4.08   *******    8.638E+00    1.0908493E+06    8.2867303E-08    8.3054688E-08    1.0908493E+06    2.0800329E-07    1.0911974E+06
   -4.07   *******    8.546E+00    1.1195376E+06    8.5061832E-08    8.5250644E-08    1.1195376E+06    2.1378725E-07    1.1198824E+06
   -4.06   *******    8.451E+00    1.1482914E+06    8.7024715E-08    8.7214031E-08    1.1482914E+06    2.1903169E-07    1.1486321E+06
   -4.05   *******    8.353E+00    1.1772084E+06    8.8748323E-08    8.8937160E-08    1.1772084E+06    2.2371727E-07    1.1775441E+06
   -4.04   *******    8.253E+00    1.2063812E+06    9.0230608E-08    9.0417921E-08    1.2063812E+06    2.2783750E-07    1.2067110E+06
   -4.03   *******    8.149E+00    1.2358907E+06    9.1474893E-08    9.1659577E-08    1.2358907E+06    2.3139820E-07    1.2362138E+06
   -4.02   *******    8.044E+00    1.2658005E+06    9.2489360E-08    9.2670253E-08    1.2658005E+06    2.3441624E-07    1.2661159E+06
   -4.01   *******    7.937E+00    1.2961512E+06    9.3286258E-08    9.3462135E-08    1.2961512E+06    2.3691761E-07    1.2964581E+06
   -4.00   *******    7.827E+00    1.3269565E+06    9.3880888E-08    9.4050465E-08    1.3269565E+06    2.3893501E-07    1.3272540E+06
   -3.99   *******    7.717E+00    1.3581999E+06    9.4290440E-08    9.4452376E-08    1.3581999E+06    2.4050513E-07    1.3584873E+06
   -3.98   *******    7.604E+00    1.3898341E+06    9.4532788E-08    9.4685688E-08    1.3898341E+06    2.4166576E-07    1.3901105E+06
   -3.97   *******    7.491E+00    1.4217810E+06    9.4625315E-08    9.4767735E-08    1.4217810E+06    2.4245310E-07    1.4220458E+06
   -3.96   *******    7.376E+00    1.4539342E+06    9.4583875E-08    9.4714330E-08    1.4539342E+06    2.4289928E-07    1.4541870E+06
   -3.95   *******    7.261E+00    1.4861632E+06    9.4421951E-08    9.4538929E-08    1.4861632E+06    2.4303048E-07    1.4864034E+06
   -3.94   *******    7.145E+00    1.5183184E+06    9.4150073E-08    9.4252048E-08    1.5183184E+06    2.4286557E-07    1.5185458E+06
   -3.93   *******    7.029E+00    1.5502381E+06    9.3775515E-08    9.3860963E-08    1.5502381E+06    2.4241548E-07    1.5504525E+06
   -3.92   *******    6.913E+00    1.5817554E+06    9.3302269E-08    9.3369686E-08    1.5817554E+06    2.4168327E-07    1.5819567E+06
   -3.91   *******    6.797E+00    1.6127060E+06    9.2731283E-08    9.2779208E-08    1.6127060E+06    2.4066473E-07    1.6128943E+06
   -3.90   *******    6.681E+00    1.6429357E+06    9.2060916E-08    9.2087951E-08    1.6429357E+06    2.3934964E-07    1.6431113E+06
   -3.89   *******    6.565E+00    1.6723077E+06    9.1287556E-08    9.1292386E-08    1.6723077E+06    2.3772329E-07    1.6724707E+06
   -3.88   *******    6.451E+00    1.7007082E+06    9.0406344E-08    9.0387756E-08    1.7007082E+06    2.3576842E-07    1.7008591E+06
   -3.87   *******    6.337E+00    1.7280521E+06    8.9411936E-08    8.9368838E-08    1.7280521E+06    2.3346712E-07    1.7281913E+06
   -3.86   *******    6.225E+00    1.7542865E+06    8.8299261E-08    8.8230691E-08    1.7542865E+06    2.3080278E-07    1.7544145E+06
   -3.85   *******    6.115E+00    1.7793926E+06    8.7064215E-08    8.6969353E-08    1.7793926E+06    2.2776189E-07    1.7795101E+06
   -3.84   *******    6.005E+00    1.8033870E+06    8.5704257E-08    8.5582430E-08    1.8033870E+06    2.2433559E-07    1.8034944E+06
   -3.83   *******    5.898E+00    1.8263207E+06    8.4218891E-08    8.4069572E-08    1.8263207E+06    2.2052093E-07    1.8264187E+06
   -3.82   *******    5.793E+00    1.8482772E+06    8.2609997E-08    8.2432804E-08    1.8482772E+06    2.1632177E-07    1.8483665E+06
   -3.81   *******    5.691E+00    1.8693695E+06    8.0882032E-08    8.0676716E-08    1.8693695E+06    2.1174931E-07    1.8694506E+06
   -3.80   *******    5.591E+00    1.8897360E+06    7.9042072E-08    7.8808513E-08    1.8897360E+06    2.0682224E-07    1.8898095E+06
   -3.79   *******    5.493E+00    1.9095359E+06    7.7099737E-08    7.6837925E-08    1.9095359E+06    2.0156657E-07    1.9096025E+06
   -3.78   *******    5.399E+00    1.9289445E+06    7.5066974E-08    7.4776999E-08    1.9289445E+06    1.9601510E-07    1.9290046E+06
   -3.77   *******    5.308E+00    1.9481472E+06    7.2957751E-08    7.2639788E-08    1.9481472E+06    1.9020659E-07    1.9482014E+06
   -3.76   *******    5.219E+00    1.9673349E+06    7.0787658E-08    7.0441952E-08    1.9673349E+06    1.8418480E-07    1.9673838E+06
   -3.75   *******    5.134E+00    1.9866987E+06    6.8573456E-08    6.8200311E-08    1.9866987E+06    1.7799718E-07    1.9867427E+06
   -3.74   *******    5.052E+00    2.0064247E+06    6.6332585E-08    6.5932356E-08    2.0064247E+06    1.7169362E-07    2.0064643E+06
   -3.73   *******    4.973E+00    2.0266902E+06    6.4082671E-08    6.3655752E-08    2.0266902E+06    1.6532510E-07    2.0267257E+06
   -3.72   *******    4.898E+00    2.0476591E+06    6.1841047E-08    6.1387870E-08    2.0476591E+06    1.5894229E-07    2.0476910E+06
   -3.71   *******    4.825E+00    2.0694791E+06    5.9624322E-08    5.9145350E-08    2.0694791E+06    1.5259439E-07    2.0695077E+06
   -3.70   *******    4.756E+00    2.0922789E+06    5.7448001E-08    5.6943728E-08    2.0922789E+06    1.4632797E-07    2.0923046E+06
   -3.69   *******    4.691E+00    2.1161661E+06    5.5326188E-08    5.4797139E-08    2.1161661E+06    1.4018608E-07    2.1161891E+06
   -3.68   *******    4.628E+00    2.1412260E+06    5.3271366E-08    5.2718098E-08    2.1412260E+06    1.3420748E-07    2.1412466E+06
   -3.67   *******    4.568E+00    2.1675208E+06    5.1294268E-08    5.0717366E-08    2.1675208E+06    1.2842621E-07    2.1675392E+06
   -3.66   *******    4.511E+00    2.1950899E+06    4.9403820E-08    4.8803900E-08    2.1950899E+06    1.2287122E-07    2.1951064E+06
   -3.65   *******    4.457E+00    2.2239504E+06    4.7607161E-08    4.6984867E-08    2.2239504E+06    1.1756629E-07    2.2239652E+06
   -3.64   *******    4.405E+00    2.2540980E+06    4.5909720E-08    4.5265720E-08    2.2540980E+06    1.1253013E-07    2.2541112E+06
   -3.63   *******    4.356E+00    2.2855083E+06    4.4315333E-08    4.3650313E-08    2.2855083E+06    1.0777653E-07    2.2855201E+06
   -3.62   *******    4.309E+00    2.3181388E+06    4.2826390E-08    4.2141048E-08    2.3181388E+06    1.0331469E-07    2.3181494E+06
   -3.61   *******    4.264E+00    2.3519309E+06    4.1443995E-08    4.0739033E-08    2.3519309E+06    9.9149609E-08    2.3519404E+06
   -3.60   *******    4.221E+00    2.3868112E+06    4.0168119E-08    3.9444233E-08    2.3868112E+06    9.5282450E-08    2.3868197E+06
   -3.59   *******    4.180E+00    2.4226943E+06    3.8997753E-08    3.8255623E-08    2.4226943E+06    9.1711011E-08    2.4227020E+06
   -3.58   *******    4.141E+00    2.4594845E+06    3.7931028E-08    3.7171309E-08    2.4594845E+06    8.8430112E-08    2.4594913E+06
   -3.57   *******    4.103E+00    2.4970774E+06    3.6965331E-08    3.6188640E-08    2.4970774E+06    8.5431994E-08    2.4970836E+06
   -3.56   *******    4.067E+00    2.5353626E+06    3.6097384E-08    3.5304297E-08    2.5353626E+06    8.2706680E-08    2.5353681E+06
   -3.55   *******    4.032E+00    2.5742249E+06    3.5323315E-08    3.4514356E-08    2.5742249E+06    8.0242306E-08    2.5742299E+06
   -3.54   *******    3.998E+00    2.6135462E+06    3.4638711E-08    3.3814346E-08    2.6135462E+06    7.8025415E-08    2.6135507E+06
   -3.53   *******    3.965E+00    2.6532073E+06    3.4038657E-08    3.3199291E-08    2.6532073E+06    7.6041225E-08    2.6532114E+06
   -3.52   *******    3.933E+00    2.6930895E+06    3.3517780E-08    3.2663752E-08    2.6930895E+06    7.4273880E-08    2.6930933E+06
   -3.51   *******    3.902E+00    2.7330762E+06    3.3070283E-08    3.2201868E-08    2.7330762E+06    7.2706680E-08    2.7330796E+06
   -3.50   *******    3.871E+00    2.7730541E+06    3.2689989E-08    3.1807398E-08    2.7730541E+06    7.1322304E-08    2.7730573E+06
   -3.49   *******    3.841E+00    2.8129151E+06    3.2370398E-08    3.1473780E-08    2.8129151E+06    7.0103025E-08    2.8129181E+06
   -3.48   *******    3.812E+00    2.8525570E+06    3.2104745E-08    3.1194189E-08    2.8525570E+06    6.9030930E-08    2.8525597E+06
   -3.47   *******    3.782E+00    2.8918847E+06    3.1886070E-08    3.0961615E-08    2.8918847E+06    6.8088135E-08    2.8918873E+06
   -3.46   *******    3.754E+00    2.9308111E+06    3.1707309E-08    3.0768944E-08    2.9308111E+06    6.7256997E-08    2.9308136E+06
   -3.45   *******    3.725E+00    2.9692575E+06    3.1561382E-08    3.0609056E-08    2.9692575E+06    6.6520335E-08    2.9692600E+06
   -3.44   *******    3.696E+00    3.0071537E+06    3.1441296E-08    3.0474923E-08    3.0071537E+06    6.5861636E-08    3.0071561E+06
   -3.43   *******    3.668E+00    3.0444380E+06    3.1340254E-08    3.0359721E-08    3.0444380E+06    6.5265258E-08    3.0444403E+06
   -3.42   *******    3.640E+00    3.0810565E+06    3.1251759E-08    3.0256937E-08    3.0810565E+06    6.4716610E-08    3.0810590E+06
   -3.41   *******    3.612E+00    3.1169631E+06    3.1169727E-08    3.0160475E-08    3.1169631E+06    6.4202315E-08    3.1169656E+06
   -3.40   *******    3.583E+00    3.1521178E+06    3.1088582E-08    3.0064759E-08    3.1521178E+06    6.3710343E-08    3.1521203E+06
   -3.39   *******    3.555E+00    3.1864860E+06    3.1003346E-08    2.9964820E-08    3.1864860E+06    6.3230109E-08    3.1864887E+06
   -3.38   *******    3.526E+00    3.2200375E+06    3.0909713E-08    2.9856375E-08    3.2200375E+06    6.2752536E-08    3.2200403E+06
   -3.37   *******    3.498E+00    3.2527450E+06    3.0804107E-08    2.9735876E-08    3.2527450E+06    6.2270080E-08    3.2527481E+06
   -3.36   *******    3.469E+00    3.2845831E+06    3.0683713E-08    2.9600552E-08    3.2845831E+06    6.1776729E-08    3.2845864E+06
   -3.35   *******    3.440E+00    3.3155270E+06    3.0546493E-08    2.9448424E-08    3.3155270E+06    6.1267960E-08    3.3155305E+06
   -3.34   *******    3.411E+00    3.3455517E+06    3.0391181E-08    2.9278291E-08    3.3455517E+06    6.0740687E-08    3.3455556E+06
   -3.33   *******    3.381E+00    3.3746313E+06    3.0217257E-08    2.9089713E-08    3.3746313E+06    6.0193186E-08    3.3746356E+06
   -3.32   *******    3.352E+00    3.4027384E+06    3.0024899E-08    2.8882954E-08    3.4027384E+06    5.9625002E-08    3.4027431E+06
   -3.31   *******    3.322E+00    3.4298441E+06    2.9814924E-08    2.8658927E-08    3.4298441E+06    5.9036860E-08    3.4298493E+06
   -3.30   *******    3.292E+00    3.4559179E+06    2.9588712E-08    2.8419114E-08    3.4559179E+06    5.8430554E-08    3.4559237E+06
   -3.29   *******    3.261E+00    3.4809283E+06    2.9348121E-08    2.8165472E-08    3.4809283E+06    5.7808841E-08    3.4809348E+06
   -3.28   *******    3.231E+00    3.5048437E+06    2.9095390E-08    2.7900340E-08    3.5048437E+06    5.7175320E-08    3.5048508E+06
   -3.27   *******    3.200E+00    3.5276326E+06    2.8833040E-08    2.7626329E-08    3.5276326E+06    5.6534309E-08    3.5276405E+06
   -3.26   *******    3.169E+00    3.5492654E+06    2.8563770E-08    2.7346220E-08    3.5492654E+06    5.5890709E-08    3.5492743E+06
   -3.25   *******    3.137E+00    3.5697151E+06    2.8290354E-08    2.7062854E-08    3.5697151E+06    5.5249871E-08    3.5697250E+06
   -3.24   *******    3.106E+00    3.5889583E+06    2.8015545E-08    2.6779034E-08    3.5889583E+06    5.4617454E-08    3.5889695E+06
   -3.23   *******    3.074E+00    3.6069769E+06    2.7741990E-08    2.6497435E-08    3.6069769E+06    5.3999293E-08    3.6069893E+06
   -3.22   *******    3.041E+00    3.6237582E+06    2.7472150E-08    2.6220528E-08    3.6237582E+06    5.3401264E-08    3.6237721E+06
   -3.21   *******    3.009E+00    3.6392967E+06    2.7208244E-08    2.5950520E-08    3.6392967E+06    5.2829166E-08    3.6393124E+06
   -3.20   *******    2.976E+00    3.6535946E+06    2.6952206E-08    2.5689311E-08    3.6535946E+06    5.2288613E-08    3.6536122E+06
   -3.19   *******    2.942E+00    3.6666624E+06    2.6705653E-08    2.5438468E-08    3.6666624E+06    5.1784934E-08    3.6666821E+06
   -3.18   *******    2.908E+00    3.6785193E+06    2.6469881E-08    2.5199218E-08    3.6785193E+06    5.1323092E-08    3.6785414E+06
   -3.17   *******    2.874E+00    3.6891933E+06    2.6245865E-08    2.4972454E-08    3.6891933E+06    5.0907608E-08    3.6892180E+06
   -3.16   *******    2.839E+00    3.6987208E+06    2.6034273E-08    2.4758750E-08    3.6987208E+06    5.0542498E-08    3.6987484E+06
   -3.15   *******    2.804E+00    3.7071454E+06    2.5835490E-08    2.4558393E-08    3.7071454E+06    5.0231213E-08    3.7071764E+06
   -3.14   *******    2.768E+00    3.7145170E+06    2.5649639E-08    2.4371404E-08    3.7145170E+06    4.9976587E-08    3.7145518E+06
   -3.13   *******    2.732E+00    3.7208891E+06    2.5476611E-08    2.4197572E-08    3.7208891E+06    4.9780783E-08    3.7209281E+06
   -3.12   *******    2.695E+00    3.7263168E+06    2.5316092E-08    2.4036484E-08    3.7263168E+06    4.9645244E-08    3.7263605E+06
   -3.11   *******    2.657E+00    3.7308533E+06    2.5167579E-08    2.3887545E-08    3.7308533E+06    4.9570645E-08    3.7309022E+06
   -3.10   *******    2.618E+00    3.7345467E+06    2.5030401E-08    2.3750003E-08    3.7345467E+06    4.9556848E-08    3.7346015E+06
   -3.09   *******    2.578E+00    3.7374365E+06    2.4903731E-08    2.3622958E-08    3.7374365E+06    4.9602860E-08    3.7374978E+06
   -3.08   *******    2.538E+00    3.7395497E+06    2.4786596E-08    2.3505378E-08    3.7395497E+06    4.9706794E-08    3.7396183E+06
   -3.07   *******    2.497E+00    3.7408975E+06    2.4677881E-08    2.3396102E-08    3.7408975E+06    4.9865834E-08    3.7409743E+06
   -3.06   *******    2.454E+00    3.7414726E+06    2.4576331E-08    2.3293840E-08    3.7414726E+06    5.0076214E-08    3.7415585E+06
   -3.05   *******    2.411E+00    3.7412461E+06    2.4480551E-08    2.3197178E-08    3.7412461E+06    5.0333195E-08    3.7413420E+06
   -3.04   *******    2.366E+00    3.7401658E+06    2.4389003E-08    2.3104572E-08    3.7401658E+06    5.0631052E-08    3.7402729E+06
   -3.03   *******    2.320E+00    3.7381556E+06    2.4300003E-08    2.3014344E-08    3.7381556E+06    5.0963079E-08    3.7382752E+06
   -3.02   *******    2.273E+00    3.7351154E+06    2.4211716E-08    2.2924676E-08    3.7351154E+06    5.1321592E-08    3.7352489E+06
   -3.01   *******    2.225E+00    3.7309222E+06    2.4122153E-08    2.2833605E-08    3.7309222E+06    5.1697956E-08    3.7310709E+06
   -3.00   *******    2.176E+00    3.7254321E+06    2.4029164E-08    2.2739016E-08    3.7254321E+06    5.2082631E-08    3.7255977E+06
   -2.99   *******    2.126E+00    3.7184839E+06    2.3930441E-08    2.2638646E-08    3.7184839E+06    5.2465230E-08    3.7186683E+06
   -2.98   *******    2.074E+00    3.7099033E+06    2.3823523E-08    2.2530081E-08    3.7099033E+06    5.2834622E-08    3.7101082E+06
   -2.97   *******    2.022E+00    3.6995075E+06    2.3705812E-08    2.2410776E-08    3.6995075E+06    5.3179055E-08    3.6997350E+06
   -2.96   *******    1.968E+00    3.6871109E+06    2.3574596E-08    2.2278079E-08    3.6871109E+06    5.3486326E-08    3.6873632E+06
   -2.95   *******    1.913E+00    3.6725309E+06    2.3427091E-08    2.2129262E-08    3.6725309E+06    5.3743982E-08    3.6728103E+06
   -2.94   *******    1.858E+00    3.6555933E+06    2.3260489E-08    2.1961578E-08    3.6555933E+06    5.3939570E-08    3.6559024E+06
   -2.93   *******    1.802E+00    3.6361382E+06    2.3072025E-08    2.1772324E-08    3.6361382E+06    5.4060910E-08    3.6364794E+06
   -2.92   *******    1.745E+00    3.6140241E+06    2.2859050E-08    2.1558911E-08    3.6140241E+06    5.4096406E-08    3.6144002E+06
   -2.91   *******    1.687E+00    3.5891327E+06    2.2619117E-08    2.1318952E-08    3.5891327E+06    5.4035358E-08    3.5895465E+06
   -2.90   *******    1.629E+00    3.5613720E+06    2.2350065E-08    2.1050345E-08    3.5613720E+06    5.3868285E-08    3.5618264E+06
   -2.89   *******    1.571E+00    3.5306782E+06    2.2050104E-08    2.0751360E-08    3.5306782E+06    5.3587225E-08    3.5311762E+06
   -2.88   *******    1.513E+00    3.4970176E+06    2.1717895E-08    2.0420713E-08    3.4970176E+06    5.3186008E-08    3.4975621E+06
   -2.87   *******    1.455E+00    3.4603867E+06    2.1352614E-08    2.0057637E-08    3.4603867E+06    5.2660477E-08    3.4609807E+06
   -2.86   *******    1.398E+00    3.4208117E+06    2.0954004E-08    1.9661926E-08    3.4208117E+06    5.2008650E-08    3.4214581E+06
   -2.85   *******    1.341E+00    3.3783476E+06    2.0522404E-08    1.9233972E-08    3.3783476E+06    5.1230809E-08    3.3790492E+06
   -2.84   *******    1.284E+00    3.3330758E+06    2.0058760E-08    1.8774769E-08    3.3330758E+06    5.0329515E-08    3.3338353E+06
   -2.83   *******    1.228E+00    3.2851018E+06    1.9564610E-08    1.8285899E-08    3.2851018E+06    4.9309541E-08    3.2859216E+06
   -2.82   *******    1.174E+00    3.2345523E+06    1.9042048E-08    1.7769498E-08    3.2345523E+06    4.8177735E-08    3.2354347E+06
   -2.81   *******    1.120E+00    3.1815715E+06    1.8493669E-08    1.7228201E-08    3.1815715E+06    4.6942803E-08    3.1825186E+06
   -2.80   *******    1.068E+00    3.1263179E+06    1.7922497E-08    1.6665063E-08    3.1263179E+06    4.5615050E-08    3.1273314E+06
   -2.79   *******    1.017E+00    3.0689608E+06    1.7331896E-08    1.6083478E-08    3.0689608E+06    4.4206060E-08    3.0700420E+06
   -2.78   *******    9.673E-01    3.0096764E+06    1.6725477E-08    1.5487082E-08    3.0096764E+06    4.2728360E-08    3.0108264E+06
   -2.77   *******    9.193E-01    2.9486448E+06    1.6106997E-08    1.4879653E-08    2.9486448E+06    4.1195060E-08    2.9498644E+06
   -2.76   *******    8.729E-01    2.8860471E+06    1.5480266E-08    1.4265013E-08    2.8860471E+06    3.9619503E-08    2.8873364E+06
   -2.75   *******    8.282E-01    2.8220624E+06    1.4849047E-08    1.3646935E-08    2.8220624E+06    3.8014926E-08    2.8234215E+06
   -2.74   *******    7.852E-01    2.7568661E+06    1.4216975E-08    1.3029060E-08    2.7568661E+06    3.6394154E-08    2.7582945E+06
   -2.73   *******    7.439E-01    2.6906278E+06    1.3587486E-08    1.2414823E-08    2.6906278E+06    3.4769331E-08    2.6921246E+06
   -2.72   *******    7.043E-01    2.6235100E+06    1.2963753E-08    1.1807392E-08    2.6235100E+06    3.3151696E-08    2.6250740E+06
   -2.71   *******    6.664E-01    2.5556673E+06    1.2348647E-08    1.1209627E-08    2.5556673E+06    3.1551419E-08    2.5572970E+06
   -2.70   *******    6.302E-01    2.4872458E+06    1.1744703E-08    1.0624049E-08    2.4872458E+06    2.9977477E-08    2.4889393E+06
   -2.69   *******    5.957E-01    2.4183828E+06    1.1154105E-08    1.0052823E-08    2.4183828E+06    2.8437591E-08    2.4201381E+06
   -2.68   *******    5.627E-01    2.3492069E+06    1.0578684E-08    9.4977564E-09    2.3492069E+06    2.6938204E-08    2.3510216E+06
   -2.67   *******    5.314E-01    2.2798384E+06    1.0019927E-08    8.9603094E-09    2.2798384E+06    2.5484511E-08    2.2817097E+06
   -2.66   *******    5.015E-01    2.2103894E+06    9.4789929E-09    8.4416105E-09    2.2103894E+06    2.4080511E-08    2.2123145E+06
   -2.65   *******    4.731E-01    2.1409644E+06    8.9567424E-09    7.9424838E-09    2.1409644E+06    2.2729100E-08    2.1429402E+06
   -2.64   *******    4.461E-01    2.0716613E+06    8.4537649E-09    7.4634796E-09    2.0716613E+06    2.1432176E-08    2.0736845E+06
   -2.63   *******    4.205E-01    2.0025717E+06    7.9704143E-09    7.0049079E-09    2.0025717E+06    2.0190765E-08    2.0046388E+06
   -2.62   *******    3.962E-01    1.9337816E+06    7.5068435E-09    6.5668733E-09    1.9337816E+06    1.9005144E-08    1.9358890E+06
   -2.61   *******    3.731E-01    1.8653723E+06    7.0630386E-09    6.1493090E-09    1.8653723E+06    1.7874970E-08    1.8675162E+06
   -2.60   *******    3.512E-01    1.7974207E+06    6.6388505E-09    5.7520079E-09    1.7974207E+06    1.6799404E-08    1.7995974E+06
   -2.59   *******    3.304E-01    1.7300005E+06    6.2340231E-09    5.3746509E-09    1.7300005E+06    1.5777220E-08    1.7322058E+06
   -2.58   *******    3.107E-01    1.6631820E+06    5.8482176E-09    5.0168310E-09    1.6631820E+06    1.4806910E-08    1.6654119E+06
   -2.57   *******    2.919E-01    1.5970333E+06    5.4810318E-09    4.6780731E-09    1.5970333E+06    1.3886770E-08    1.5992836E+06
   -2.56   *******    2.742E-01    1.5316207E+06    5.1320161E-09    4.3578496E-09    1.5316207E+06    1.3014974E-08    1.5338871E+06
   -2.55   *******    2.574E-01    1.4670089E+06    4.8006846E-09    4.0555925E-09    1.4670089E+06    1.2189630E-08    1.4692869E+06
   -2.54   *******    2.414E-01    1.4032617E+06    4.4865241E-09    3.7707026E-09    1.4032617E+06    1.1408829E-08    1.4055468E+06
   -2.53   *******    2.263E-01    1.3404424E+06    4.1889999E-09    3.5025565E-09    1.3404424E+06    1.0670680E-08    1.3427300E+06
   -2.52   *******    2.119E-01    1.2786139E+06    3.9075606E-09    3.2505124E-09    1.2786139E+06    9.9733297E-09    1.2808993E+06
   -2.51   *******    1.983E-01    1.2178392E+06    3.6416419E-09    3.0139146E-09    1.2178392E+06    9.3149799E-09    1.2201176E+06
   -2.50   *******    1.854E-01    1.1581815E+06    3.3906699E-09    2.7920986E-09    1.1581815E+06    8.6938950E-09    1.1604480E+06
   -2.49   *******    1.732E-01    1.0997042E+06    3.1540650E-09    2.5843957E-09    1.0997042E+06    8.1084049E-09    1.1019538E+06
   -2.48   *******    1.616E-01    1.0424707E+06    2.9312455E-09    2.3901380E-09    1.0424707E+06    7.5569044E-09    1.0446983E+06
   -2.47   *******    1.506E-01    9.8654457E+05    2.7216319E-09    2.2086639E-09    9.8654457E+05    7.0378507E-09    9.8874520E+05
   -2.46   *******    1.403E-01    9.3198930E+05    2.5246519E-09    2.0393233E-09    9.3198930E+05    6.5497603E-09    9.3415777E+05
   -2.45   *******    1.304E-01    8.7886764E+05    2.3397443E-09    1.8814827E-09    8.7886764E+05    6.0912056E-09    8.8099884E+05
   -2.44   *******    1.212E-01    8.2724136E+05    2.1663640E-09    1.7345309E-09    8.2724136E+05    5.6608130E-09    8.2933024E+05
   -2.43   *******    1.124E-01    7.7717061E+05    2.0039859E-09    1.5978824E-09    7.7717061E+05    5.2572619E-09    7.7921224E+05
   -2.42   *******    1.041E-01    7.2871323E+05    1.8521082E-09    1.4709816E-09    7.2871323E+05    4.8792855E-09    7.3070284E+05
   -2.41   *******    9.633E-02    6.8192399E+05    1.7102547E-09    1.3533048E-09    6.8192399E+05    4.5256727E-09    6.8385701E+05
   -2.40   *******    8.898E-02    6.3685369E+05    1.5779768E-09    1.2443621E-09    6.3685369E+05    4.1952707E-09    6.3872586E+05
   -2.39   *******    8.208E-02    5.9354828E+05    1.4548539E-09    1.1436975E-09    5.9354828E+05    3.8869888E-09    5.9535568E+05
   -2.38   *******    7.560E-02    5.5204788E+05    1.3404928E-09    1.0508886E-09    5.5204788E+05    3.5998018E-09    5.5378702E+05
   -2.37   *******    6.952E-02    5.1238592E+05    1.2345269E-09    9.6554534E-10    5.1238592E+05    3.3327531E-09    5.1405375E+05
   -2.36   *******    6.383E-02    4.7458820E+05    1.1366146E-09    8.8730832E-10    4.7458820E+05    3.0849568E-09    4.7618218E+05
   -2.35   *******    5.851E-02    4.3867213E+05    1.0464372E-09    8.1584674E-10    4.3867213E+05    2.8555997E-09    4.4019030E+05
   -2.34   *******    5.355E-02    4.0464612E+05    9.6369732E-10    7.5085647E-10    4.0464612E+05    2.6439407E-09    4.0608707E+05
   -2.33   *******    4.893E-02    3.7250907E+05    8.8811700E-10    6.9205835E-10    3.7250907E+05    2.4493105E-09    3.7387200E+05
   -2.32   *******    4.464E-02    3.4225016E+05    8.1943657E-10    6.3919682E-10    3.4225016E+05    2.2711096E-09    3.4353484E+05
   -2.31   *******    4.066E-02    3.1384876E+05    7.5741401E-10    5.9203916E-10    3.1384876E+05    2.1088062E-09    3.1505556E+05
   -2.30   *******    3.698E-02    2.8727469E+05    7.0182490E-10    5.5037526E-10    2.8727469E+05    1.9619340E-09    2.8840452E+05
   -2.29   *******    3.358E-02    2.6248862E+05    6.5246315E-10    5.1401812E-10    2.6248862E+05    1.8300902E-09    2.6354291E+05
   -2.28   *******    3.044E-02    2.3944276E+05    6.0914237E-10    4.8280479E-10    2.3944276E+05    1.7129343E-09    2.4042340E+05
   -2.27   *******    2.756E-02    2.1808167E+05    5.7169781E-10    4.5659802E-10    2.1808167E+05    1.6101874E-09    2.1899099E+05
   -2.26   *******    2.492E-02    1.9834333E+05    5.3998888E-10    4.3528819E-10    1.9834333E+05    1.5216344E-09    1.9918399E+05
   -2.25   *******    2.249E-02    1.8016021E+05    5.1390210E-10    4.1879577E-10    1.8016021E+05    1.4471255E-09    1.8093516E+05
   -2.24   *******    2.027E-02    1.6346049E+05    4.9335440E-10    4.0707403E-10    1.6346049E+05    1.3865813E-09    1.6417292E+05
   -2.23   *******    1.825E-02    1.4816928E+05    4.7829670E-10    4.0011202E-10    1.4816928E+05    1.3399981E-09    1.4882254E+05
   -2.22   *******    1.640E-02    1.3420984E+05    4.6871774E-10    3.9793777E-10    1.3420984E+05    1.3074554E-09    1.3480738E+05
   -2.21   *******    1.472E-02    1.2150470E+05    4.6464806E-10    4.0062174E-10    1.2150470E+05    1.2891247E-09    1.2205001E+05
   -2.20   *******    1.319E-02    1.0997677E+05    4.6616419E-10    4.0828040E-10    1.0997677E+05    1.2852795E-09    1.1047334E+05
   -2.19   *******    1.180E-02    9.9550269E+04    4.7339303E-10    4.2108015E-10    9.9550269E+04    1.2963066E-09    1.0000155E+05
   -2.18   *******    1.054E-02    9.0151606E+04    4.8651639E-10    4.3924141E-10    9.0151606E+04    1.3227182E-09    9.0560967E+04
   -2.17   *******    9.390E-03    8.1710085E+04    5.0577581E-10    4.6304303E-10    8.1710085E+04    1.3651656E-09    8.2080778E+04
   -2.16   *******    8.350E-03    7.4158507E+04    5.3147765E-10    4.9282708E-10    7.4158507E+04    1.4244531E-09    7.4493651E+04
   -2.15   *******    7.404E-03    6.7433651E+04    5.6399851E-10    5.2900401E-10    6.7433651E+04    1.5015537E-09    6.7736212E+04
   -2.14   *******    6.545E-03    6.1476636E+04    6.0379104E-10    5.7205826E-10    6.1476636E+04    1.5976253E-09    6.1749416E+04
   -2.13   *******    5.763E-03    5.6233193E+04    6.5139020E-10    6.2255436E-10    5.6233193E+04    1.7140279E-09    5.6478823E+04
   -2.12   *******    5.049E-03    5.1653847E+04    7.0741991E-10    6.8114354E-10    5.1653847E+04    1.8523421E-09    5.1874783E+04
   -2.11   *******    4.397E-03    4.7694027E+04    7.7260036E-10    7.4857086E-10    4.7694027E+04    2.0143887E-09    4.7892549E+04
   -2.10   *******    3.797E-03    4.4314119E+04    8.4775567E-10    8.2568297E-10    4.4314119E+04    2.2022494E-09    4.4492337E+04
   -2.09   *******    3.245E-03    4.1479476E+04    9.3382218E-10    9.1343633E-10    4.1479476E+04    2.4182882E-09    4.1639334E+04
   -2.08   *******    2.732E-03    3.9160397E+04    1.0318572E-09    1.0129060E-09    3.9160397E+04    2.6651743E-09    3.9303678E+04
   -2.07   *******    2.254E-03    3.7332076E+04    1.1430480E-09    1.1252947E-09    3.7332076E+04    2.9459057E-09    3.7460412E+04
   -2.06   *******    1.805E-03    3.5974548E+04    1.2687217E-09    1.2519426E-09    3.5974548E+04    3.2638331E-09    3.6089426E+04
   -2.05   *******    1.378E-03    3.5072620E+04    1.4103546E-09    1.3943367E-09    3.5072620E+04    3.6226844E-09    3.5175396E+04
   -2.04   *******    9.696E-04    3.4615808E+04    1.5695817E-09    1.5541208E-09    3.4615808E+04    4.0265883E-09    3.4707710E+04
   -2.03   *******    5.738E-04    3.4598268E+04    1.7482066E-09    1.7331049E-09    3.4598268E+04    4.4800973E-09    3.4680411E+04
   -2.02   *******    1.861E-04    3.5018743E+04    1.9482098E-09    1.9332737E-09    3.5018743E+04    4.9882089E-09    3.5092133E+04
   -2.01   *******   -1.981E-04    3.5880504E+04    2.1717567E-09    2.1567948E-09    3.5880504E+04    5.5563833E-09    3.5946050E+04
   -2.00   *******   -5.835E-04    3.7191297E+04    2.4212038E-09    2.4060247E-09    3.7191297E+04    6.1905569E-09    3.7249819E+04
   -1.99   *******   -9.746E-04    3.8963300E+04    2.6991026E-09    2.6835130E-09    3.8963300E+04    6.8971500E-09    3.9015536E+04
   -1.98   *******   -1.376E-03    4.1213065E+04    3.0082010E-09    2.9920035E-09    4.1213065E+04    7.6830668E-09    4.1259677E+04
   -1.97   *******   -1.792E-03    4.3961455E+04    3.3514412E-09    3.3344322E-09    4.3961455E+04    8.5556848E-09    4.4003040E+04
   -1.96   *******   -2.227E-03    4.7233575E+04    3.7319523E-09    3.7139200E-09    4.7233575E+04    9.5228329E-09    4.7270667E+04
   -1.95   *******   -2.687E-03    5.1058667E+04    4.1530381E-09    4.1337605E-09    5.1058667E+04    1.0592754E-08    5.1091746E+04
   -1.94   *******   -3.175E-03    5.5469985E+04    4.6181590E-09    4.5974017E-09    5.5469985E+04    1.1774051E-08    5.5499479E+04
   -1.93   *******   -3.697E-03    6.0504624E+04    5.1309050E-09    5.1084191E-09    6.0504624E+04    1.3075613E-08    6.0530918E+04
   -1.92   *******   -4.257E-03    6.6203308E+04    5.6949621E-09    5.6704826E-09    6.6203308E+04    1.4506518E-08    6.6226747E+04
   -1.91   *******   -4.861E-03    7.2610121E+04    6.3140690E-09    6.2873122E-09    7.2610121E+04    1.6075917E-08    7.2631012E+04
   -1.90   *******   -5.513E-03    7.9772165E+04    6.9919648E-09    6.9626270E-09    7.9772165E+04    1.7792888E-08    7.9790784E+04
   -1.89   *******   -6.219E-03    8.7739173E+04    7.7323279E-09    7.7000831E-09    8.7739173E+04    1.9666271E-08    8.7755764E+04
   -1.88   *******   -6.983E-03    9.6563026E+04    8.5387055E-09    8.5032041E-09    9.6563026E+04    2.1704480E-08    9.6577810E+04
   -1.87   *******   -7.812E-03    1.0629723E+05    9.4144367E-09    9.3753038E-09    1.0629723E+05    2.3915293E-08    1.0631040E+05
   -1.86   *******   -8.711E-03    1.1699629E+05    1.0362570E-08    1.0319404E-08    1.1699629E+05    2.6305638E-08    1.1700802E+05
   -1.85   *******   -9.684E-03    1.2871508E+05    1.1385776E-08    1.1338150E-08    1.2871508E+05    2.8881367E-08    1.2872553E+05
   -1.84   *******   -1.074E-02    1.4150812E+05    1.2486266E-08    1.2433724E-08    1.4150812E+05    3.1647038E-08    1.4151744E+05
   -1.83   *******   -1.188E-02    1.5542888E+05    1.3665710E-08    1.3607769E-08    1.5542888E+05    3.4605715E-08    1.5543717E+05
   -1.82   *******   -1.310E-02    1.7052899E+05    1.4925165E-08    1.4861317E-08    1.7052899E+05    3.7758802E-08    1.7053638E+05
   -1.81   *******   -1.442E-02    1.8685758E+05    1.6265022E-08    1.6194733E-08    1.8685758E+05    4.1105908E-08    1.8686417E+05
   -1.80   *******   -1.585E-02    2.0446059E+05    1.7684960E-08    1.7607675E-08    2.0446059E+05    4.4644780E-08    2.0446645E+05
   -1.79   *******   -1.737E-02    2.2338010E+05    1.9183936E-08    1.9099080E-08    2.2338010E+05    4.8371290E-08    2.2338532E+05
   -1.78   *******   -1.900E-02    2.4365385E+05    2.0760184E-08    2.0667170E-08    2.4365385E+05    5.2279496E-08    2.4365851E+05
   -1.77   *******   -2.074E-02    2.6531479E+05    2.2411246E-08    2.2309479E-08    2.6531479E+05    5.6361766E-08    2.6531893E+05
   -1.76   *******   -2.259E-02    2.8839068E+05    2.4134022E-08    2.4022905E-08    2.8839068E+05    6.0608967E-08    2.8839437E+05
   -1.75   *******   -2.456E-02    3.1290397E+05    2.5924839E-08    2.5803785E-08    3.1290397E+05    6.5010705E-08    3.1290726E+05
   -1.74   *******   -2.664E-02    3.3887163E+05    2.7779534E-08    2.7647975E-08    3.3887163E+05    6.9555595E-08    3.3887456E+05
   -1.73   *******   -2.885E-02    3.6630518E+05    2.9693550E-08    2.9550947E-08    3.6630518E+05    7.4231560E-08    3.6630779E+05
   -1.72   *******   -3.117E-02    3.9521084E+05    3.1662028E-08    3.1507890E-08    3.9521084E+05    7.9026115E-08    3.9521316E+05
   -1.71   *******   -3.362E-02    4.2558972E+05    3.3679906E-08    3.3513803E-08    4.2558972E+05    8.3926647E-08    4.2559178E+05
   -1.70   *******   -3.618E-02    4.5743811E+05    3.5742017E-08    3.5563598E-08    4.5743811E+05    8.8920671E-08    4.5743995E+05
   -1.69   *******   -3.887E-02    4.9074790E+05    3.7843176E-08    3.7652188E-08    4.9074790E+05    9.3996062E-08    4.9074954E+05
   -1.68   *******   -4.168E-02    5.2550693E+05    3.9978271E-08    3.9774580E-08    5.2550693E+05    9.9141263E-08    5.2550840E+05
   -1.67   *******   -4.462E-02    5.6169948E+05    4.2142356E-08    4.1925968E-08    5.6169948E+05    1.0434549E-07    5.6170078E+05
   -1.66   *******   -4.767E-02    5.9930669E+05    4.4330741E-08    4.4101820E-08    5.9930669E+05    1.0959892E-07    5.9930785E+05
   -1.65   *******   -5.085E-02    6.3830706E+05    4.6539086E-08    4.6297978E-08    6.3830706E+05    1.1489293E-07    6.3830810E+05
   -1.64   *******   -5.414E-02    6.7867689E+05    4.8763497E-08    4.8510747E-08    6.7867689E+05    1.2022023E-07    6.7867782E+05
   -1.63   *******   -5.755E-02    7.2039071E+05    5.1000615E-08    5.0736981E-08    7.2039071E+05    1.2557515E-07    7.2039154E+05
   -1.62   *******   -6.108E-02    7.6342167E+05    5.3247685E-08    5.2974154E-08    7.6342167E+05    1.3095373E-07    7.6342241E+05
   -1.61   *******   -6.472E-02    8.0774194E+05    5.5502612E-08    5.5220405E-08    8.0774194E+05    1.3635385E-07    8.0774259E+05
   -1.60   *******   -6.848E-02    8.5332298E+05    5.7763967E-08    5.7474544E-08    8.5332298E+05    1.4177526E-07    8.5332357E+05
   -1.59   *******   -7.236E-02    9.0013587E+05    6.0030955E-08    5.9736016E-08    9.0013587E+05    1.4721943E-07    9.0013640E+05
   -1.58   *******   -7.634E-02    9.4815152E+05    6.2303333E-08    6.2004809E-08    9.4815152E+05    1.5268933E-07    9.4815199E+05
   -1.57   *******   -8.043E-02    9.9734082E+05    6.4581267E-08    6.4281311E-08    9.9734082E+05    1.5818901E-07    9.9734124E+05
   -1.56   *******   -8.464E-02    1.0476748E+06    6.6865151E-08    6.6566124E-08    1.0476748E+06    1.6372307E-07    1.0476752E+06
   -1.55   *******   -8.895E-02    1.0991247E+06    6.9155379E-08    6.8859831E-08    1.0991247E+06    1.6929593E-07    1.0991251E+06
   -1.54   *******   -9.337E-02    1.1516621E+06    7.1452100E-08    7.1162749E-08    1.1516621E+06    1.7491115E-07    1.1516624E+06
   -1.53   *******   -9.789E-02    1.2052588E+06    7.3754960E-08    7.3474671E-08    1.2052588E+06    1.8057059E-07    1.2052591E+06
   -1.52   *******   -1.025E-01    1.2598870E+06    7.6062861E-08    7.5794627E-08    1.2598870E+06    1.8627369E-07    1.2598873E+06
   -1.51   *******   -1.072E-01    1.3155193E+06    7.8373758E-08    7.8120676E-08    1.3155193E+06    1.9201675E-07    1.3155195E+06
   -1.50   *******   -1.121E-01    1.3721284E+06    8.0684494E-08    8.0449748E-08    1.3721284E+06    1.9779246E-07    1.3721286E+06
   -1.49   *******   -1.170E-01    1.4296875E+06    8.2990715E-08    8.2777555E-08    1.4296875E+06    2.0358954E-07    1.4296877E+06
   -1.48   *******   -1.220E-01    1.4881703E+06    8.5286850E-08    8.5098578E-08    1.4881703E+06    2.0939270E-07    1.4881705E+06
   -1.47   *******   -1.272E-01    1.5475505E+06    8.7566183E-08    8.7406133E-08    1.5475505E+06    2.1518278E-07    1.5475507E+06
   -1.46   *******   -1.324E-01    1.6078026E+06    8.9820999E-08    8.9692524E-08    1.6078026E+06    2.2093723E-07    1.6078028E+06
   -1.45   *******   -1.377E-01    1.6689010E+06    9.2042810E-08    9.1949270E-08    1.6689010E+06    2.2663082E-07    1.6689012E+06
   -1.44   *******   -1.431E-01    1.7308206E+06    9.4222650E-08    9.4167390E-08    1.7308206E+06    2.3223651E-07    1.7308208E+06
   -1.43   *******   -1.486E-01    1.7935366E+06    9.6351403E-08    9.6337742E-08    1.7935366E+06    2.3772655E-07    1.7935367E+06
   -1.42   *******   -1.542E-01    1.8570243E+06    9.8420166E-08    9.8451378E-08    1.8570243E+06    2.4307360E-07    1.8570244E+06
   -1.41   *******   -1.599E-01    1.9212593E+06    1.0042061E-07    1.0049990E-07    1.9212593E+06    2.4825185E-07    1.9212594E+06
   -1.40   *******   -1.657E-01    1.9862173E+06    1.0234529E-07    1.0247580E-07    1.9862173E+06    2.5323810E-07    1.9862175E+06
   -1.39   *******   -1.716E-01    2.0518743E+06    1.0418798E-07    1.0437273E-07    2.0518743E+06    2.5801262E-07    2.0518745E+06
   -1.38   *******   -1.775E-01    2.1182065E+06    1.0594384E-07    1.0618573E-07    2.1182065E+06    2.6255986E-07    2.1182067E+06
   -1.37   *******   -1.836E-01    2.1851902E+06    1.0760957E-07    1.0791136E-07    2.1851902E+06    2.6686890E-07    2.1851904E+06
   -1.36   *******   -1.897E-01    2.2528023E+06    1.0918351E-07    1.0954778E-07    2.2528023E+06    2.7093362E-07    2.2528026E+06
   -1.35   *******   -1.959E-01    2.3210202E+06    1.1066557E-07    1.1109471E-07    2.3210202E+06    2.7475261E-07    2.3210205E+06
   -1.34   *******   -2.023E-01    2.3898217E+06    1.1205718E-07    1.1255337E-07    2.3898217E+06    2.7832894E-07    2.3898219E+06
   -1.33   *******   -2.087E-01    2.4591853E+06    1.1336113E-07    1.1392630E-07    2.4591853E+06    2.8166956E-07    2.4591856E+06
   -1.32   *******   -2.152E-01    2.5290904E+06    1.1458139E-07    1.1521720E-07    2.5290904E+06    2.8478474E-07    2.5290907E+06
   -1.31   *******   -2.218E-01    2.5995171E+06    1.1572286E-07    1.1643069E-07    2.5995171E+06    2.8768727E-07    2.5995175E+06
   -1.30   *******   -2.284E-01    2.6704466E+06    1.1679121E-07    1.1757212E-07    2.6704466E+06    2.9039169E-07    2.6704471E+06
   -1.29   *******   -2.352E-01    2.7418609E+06    1.1779260E-07    1.1864733E-07    2.7418609E+06    2.9291353E-07    2.7418613E+06
   -1.28   *******   -2.420E-01    2.8137427E+06    1.1873354E-07    1.1966247E-07    2.8137427E+06    2.9526862E-07    2.8137432E+06
   -1.27   *******   -2.490E-01    2.8860758E+06    1.1962072E-07    1.2062387E-07    2.8860758E+06    2.9747252E-07    2.8860763E+06
   -1.26   *******   -2.560E-01    2.9588447E+06    1.2046088E-07    1.2153790E-07    2.9588447E+06    2.9954014E-07    2.9588453E+06
   -1.25   *******   -2.631E-01    3.0320346E+06    1.2126079E-07    1.2241095E-07    3.0320346E+06    3.0148556E-07    3.0320353E+06
   -1.24   *******   -2.703E-01    3.1056314E+06    1.2202721E-07    1.2324938E-07    3.1056314E+06    3.0332206E-07    3.1056322E+06
   -1.23   *******   -2.775E-01    3.1796214E+06    1.2276693E-07    1.2405962E-07    3.1796214E+06    3.0506243E-07    3.1796223E+06
   -1.22   *******   -2.849E-01    3.2539916E+06    1.2348683E-07    1.2484817E-07    3.2539916E+06    3.0671933E-07    3.2539926E+06
   -1.21   *******   -2.923E-01    3.3287292E+06    1.2419398E-07    1.2562172E-07    3.3287292E+06    3.0830593E-07    3.3287303E+06
   -1.20   *******   -2.999E-01    3.4038216E+06    1.2489568E-07    1.2638725E-07    3.4038216E+06    3.0983654E-07    3.4038228E+06
   -1.19   *******   -3.075E-01    3.4792566E+06    1.2559958E-07    1.2715207E-07    3.4792566E+06    3.1132724E-07    3.4792580E+06
   -1.18   *******   -3.152E-01    3.5550222E+06    1.2631365E-07    1.2792387E-07    3.5550222E+06    3.1279641E-07    3.5550238E+06
   -1.17   *******   -3.230E-01    3.6311062E+06    1.2704618E-07    1.2871068E-07    3.6311062E+06    3.1426508E-07    3.6311080E+06
   -1.16   *******   -3.309E-01    3.7074967E+06    1.2780572E-07    1.2952084E-07    3.7074967E+06    3.1575708E-07    3.7074987E+06
   -1.15   *******   -3.388E-01    3.7841815E+06    1.2860086E-07    1.3036276E-07    3.7841815E+06    3.1729881E-07    3.7841838E+06
   -1.14   *******   -3.469E-01    3.8611482E+06    1.2944009E-07    1.3124478E-07    3.8611482E+06    3.1891874E-07    3.8611507E+06
   -1.13   *******   -3.550E-01    3.9383840E+06    1.3033143E-07    1.3217484E-07    3.9383840E+06    3.2064664E-07    3.9383868E+06
   -1.12   *******   -3.633E-01    4.0158754E+06    1.3128220E-07    1.3316021E-07    4.0158754E+06    3.2251245E-07    4.0158786E+06
   -1.11   *******   -3.716E-01    4.0936084E+06    1.3229860E-07    1.3420709E-07    4.0936084E+06    3.2454511E-07    4.0936119E+06
   -1.10   *******   -3.800E-01    4.1715677E+06    1.3338544E-07    1.3532033E-07    4.1715677E+06    3.2677117E-07    4.1715717E+06
   -1.09   *******   -3.885E-01    4.2497372E+06    1.3454585E-07    1.3650313E-07    4.2497372E+06    3.2921350E-07    4.2497417E+06
   -1.08   *******   -3.971E-01    4.3280993E+06    1.3578104E-07    1.3775681E-07    4.3280993E+06    3.3189007E-07    4.3281044E+06
   -1.07   *******   -4.058E-01    4.4066353E+06    1.3709015E-07    1.3908067E-07    4.4066353E+06    3.3481304E-07    4.4066409E+06
   -1.06   *******   -4.145E-01    4.4853249E+06    1.3847028E-07    1.4047198E-07    4.4853249E+06    3.3798809E-07    4.4853312E+06
   -1.05   *******   -4.234E-01    4.5641466E+06    1.3991653E-07    1.4192601E-07    4.5641466E+06    3.4141414E-07    4.5641537E+06
   -1.04   *******   -4.324E-01    4.6430778E+06    1.4142220E-07    1.4343624E-07    4.6430778E+06    3.4508348E-07    4.6430858E+06
   -1.03   *******   -4.414E-01    4.7220950E+06    1.4297906E-07    1.4499465E-07    4.7220950E+06    3.4898229E-07    4.7221040E+06
   -1.02   *******   -4.506E-01    4.8011740E+06    1.4457778E-07    1.4659205E-07    4.8011740E+06    3.5309146E-07    4.8011841E+06
   -1.01   *******   -4.598E-01    4.8802903E+06    1.4620828E-07    1.4821852E-07    4.8802903E+06    3.5738772E-07    4.8803015E+06
   -1.00   *******   -4.692E-01    4.9594191E+06    1.4786021E-07    1.4986383E-07    4.9594191E+06    3.6184496E-07    4.9594317E+06
   -0.99   *******   -4.786E-01    5.0385360E+06    1.4952336E-07    1.5151788E-07    5.0385360E+06    3.6643556E-07    5.0385502E+06
   -0.98   *******   -4.882E-01    5.1176169E+06    1.5118804E-07    1.5317107E-07    5.1176169E+06    3.7113169E-07    5.1176329E+06
   -0.97   *******   -4.978E-01    5.1966382E+06    1.5284535E-07    1.5481459E-07    5.1966382E+06    3.7590641E-07    5.1966561E+06
   -0.96   *******   -5.076E-01    5.2755765E+06    1.5448734E-07    1.5644057E-07    5.2755765E+06    3.8073452E-07    5.2755967E+06
   -0.95   *******   -5.175E-01    5.3544087E+06    1.5610705E-07    1.5804217E-07    5.3544087E+06    3.8559298E-07    5.3544314E+06
   -0.94   *******   -5.274E-01    5.4331116E+06    1.5769844E-07    1.5961348E-07    5.4331116E+06    3.9046106E-07    5.4331370E+06
   -0.93   *******   -5.375E-01    5.5116610E+06    1.5925611E-07    1.6114932E-07    5.5116610E+06    3.9532003E-07    5.5116896E+06
   -0.92   *******   -5.477E-01    5.5900319E+06    1.6077510E-07    1.6264495E-07    5.5900319E+06    4.0015258E-07    5.5900640E+06
   -0.91   *******   -5.580E-01    5.6681972E+06    1.6225042E-07    1.6409574E-07    5.6681972E+06    4.0494203E-07    5.6682332E+06
   -0.90   *******   -5.684E-01    5.7461275E+06    1.6367681E-07    1.6549678E-07    5.7461275E+06    4.0967142E-07    5.7461679E+06
   -0.89   *******   -5.789E-01    5.8237904E+06    1.6504833E-07    1.6684261E-07    5.8237904E+06    4.1432266E-07    5.8238358E+06
   -0.88   *******   -5.895E-01    5.9011502E+06    1.6635819E-07    1.6812695E-07    5.9011502E+06    4.1887581E-07    5.9012012E+06
   -0.87   *******   -6.003E-01    5.9781673E+06    1.6759859E-07    1.6934257E-07    5.9781673E+06    4.2330866E-07    5.9782245E+06
   -0.86   *******   -6.111E-01    6.0547980E+06    1.6876073E-07    1.7048131E-07    6.0547980E+06    4.2759656E-07    6.0548623E+06
   -0.85   *******   -6.221E-01    6.1309945E+06    1.6983497E-07    1.7153414E-07    6.1309945E+06    4.3171266E-07    6.1310667E+06
   -0.84   *******   -6.332E-01    6.2067045E+06    1.7081106E-07    1.7249149E-07    6.2067045E+06    4.3562840E-07    6.2067854E+06
   -0.83   *******   -6.445E-01    6.2818712E+06    1.7167851E-07    1.7334351E-07    6.2818712E+06    4.3931436E-07    6.2819620E+06
   -0.82   *******   -6.558E-01    6.3564334E+06    1.7242704E-07    1.7408048E-07    6.3564334E+06    4.4274126E-07    6.3565355E+06
   -0.81   *******   -6.673E-01    6.4303260E+06    1.7304695E-07    1.7469330E-07    6.4303260E+06    4.4588104E-07    6.4304405E+06
   -0.80   *******   -6.790E-01    6.5034795E+06    1.7352966E-07    1.7517384E-07    6.5034795E+06    4.4870804E-07    6.5036080E+06
   -0.79   *******   -6.907E-01    6.5758210E+06    1.7386806E-07    1.7551537E-07    6.5758210E+06    4.5119997E-07    6.5759652E+06
   -0.78   *******   -7.026E-01    6.6472744E+06    1.7405687E-07    1.7571286E-07    6.6472744E+06    4.5333882E-07    6.6474363E+06
   -0.77   *******   -7.146E-01    6.7177614E+06    1.7409287E-07    1.7576318E-07    6.7177614E+06    4.5511142E-07    6.7179430E+06
   -0.76   *******   -7.267E-01    6.7872016E+06    1.7397502E-07    1.7566529E-07    6.7872016E+06    4.5650987E-07    6.7874053E+06
   -0.75   *******   -7.390E-01    6.8555139E+06    1.7370449E-07    1.7542014E-07    6.8555139E+06    4.5753154E-07    6.8557425E+06
   -0.74   *******   -7.514E-01    6.9226170E+06    1.7328454E-07    1.7503066E-07    6.9226170E+06    4.5817888E-07    6.9228735E+06
   -0.73   *******   -7.640E-01    6.9884301E+06    1.7272034E-07    1.7450151E-07    6.9884301E+06    4.5845899E-07    6.9887177E+06
   -0.72   *******   -7.766E-01    7.0528732E+06    1.7201866E-07    1.7383886E-07    7.0528732E+06    4.5838298E-07    7.0531957E+06
   -0.71   *******   -7.894E-01    7.1158679E+06    1.7118754E-07    1.7305002E-07    7.1158679E+06    4.5796521E-07    7.1162294E+06
   -0.70   *******   -8.023E-01    7.1773374E+06    1.7023592E-07    1.7214314E-07    7.1773374E+06    4.5722250E-07    7.1777426E+06
   -0.69   *******   -8.154E-01    7.2372065E+06    1.6917329E-07    1.7112689E-07    7.2372065E+06    4.5617339E-07    7.2376606E+06
   -0.68   *******   -8.285E-01    7.2954018E+06    1.6800933E-07    1.7001012E-07    7.2954018E+06    4.5483747E-07    7.2959105E+06
   -0.67   *******   -8.418E-01    7.3518515E+06    1.6675371E-07    1.6880173E-07    7.3518515E+06    4.5323484E-07    7.3524213E+06
   -0.66   *******   -8.552E-01    7.4064855E+06    1.6541584E-07    1.6751041E-07    7.4064855E+06    4.5138581E-07    7.4071235E+06
   -0.65   *******   -8.687E-01    7.4592353E+06    1.6400476E-07    1.6614461E-07    7.4592353E+06    4.4931067E-07    7.4599493E+06
   -0.64   *******   -8.823E-01    7.5100339E+06    1.6252916E-07    1.6471251E-07    7.5100339E+06    4.4702971E-07    7.5108327E+06
   -0.63   *******   -8.959E-01    7.5588161E+06    1.6099736E-07    1.6322204E-07    7.5588161E+06    4.4456326E-07    7.5597095E+06
   -0.62   *******   -9.097E-01    7.6055188E+06    1.5941738E-07    1.6168096E-07    7.6055188E+06    4.4193182E-07    7.6065174E+06
   -0.61   *******   -9.236E-01    7.6500807E+06    1.5779703E-07    1.6009689E-07    7.6500807E+06    4.3915618E-07    7.6511961E+06
   -0.60   *******   -9.375E-01    7.6924426E+06    1.5614395E-07    1.5847741E-07    7.6924426E+06    4.3625748E-07    7.6936879E+06
   -0.59   *******   -9.515E-01    7.7325479E+06    1.5446574E-07    1.5683007E-07    7.7325479E+06    4.3325716E-07    7.7339371E+06
   -0.58   *******   -9.656E-01    7.7703424E+06    1.5276988E-07    1.5516238E-07    7.7703424E+06    4.3017683E-07    7.7718909E+06
   -0.57   *******   -9.797E-01    7.8057749E+06    1.5106378E-07    1.5348180E-07    7.8057749E+06    4.2703811E-07    7.8074996E+06
   -0.56   *******   -9.939E-01    7.8387976E+06    1.4935473E-07    1.5179566E-07    7.8387976E+06    4.2386235E-07    7.8407166E+06
   -0.55   *******   -1.008E+00    7.8693669E+06    1.4764981E-07    1.5011114E-07    7.8693669E+06    4.2067040E-07    7.8714998E+06
   -0.54   *******   -1.022E+00    7.8974441E+06    1.4595589E-07    1.4843516E-07    7.8974441E+06    4.1748241E-07    7.8998121E+06
   -0.53   *******   -1.037E+00    7.9229970E+06    1.4427954E-07    1.4677440E-07    7.9229970E+06    4.1431769E-07    7.9256224E+06
   -0.52   *******   -1.051E+00    7.9460007E+06    1.4262706E-07    1.4513525E-07    7.9460007E+06    4.1119475E-07    7.9489074E+06
   -0.51   *******   -1.065E+00    7.9664392E+06    1.4100448E-07    1.4352389E-07    7.9664392E+06    4.0813129E-07    7.9696522E+06
   -0.50   *******   -1.080E+00    7.9843066E+06    1.3941759E-07    1.4194628E-07    7.9843066E+06    4.0514443E-07    7.9878520E+06
   -0.49   *******   -1.094E+00    7.9996078E+06    1.3787203E-07    1.4040827E-07    7.9996078E+06    4.0225082E-07    8.0035127E+06
   -0.48   *******   -1.108E+00    8.0123598E+06    1.3637338E-07    1.3891567E-07    8.0123598E+06    3.9946688E-07    8.0166516E+06
   -0.47   *******   -1.123E+00    8.0225911E+06    1.3492713E-07    1.3747427E-07    8.0225911E+06    3.9680879E-07    8.0272976E+06
   -0.46   *******   -1.137E+00    8.0303422E+06    1.3353880E-07    1.3608990E-07    8.0303422E+06    3.9429258E-07    8.0354908E+06
   -0.45   *******   -1.151E+00    8.0356646E+06    1.3221387E-07    1.3476834E-07    8.0356646E+06    3.9193388E-07    8.0412819E+06
   -0.44   *******   -1.166E+00    8.0386200E+06    1.3095769E-07    1.3351533E-07    8.0386200E+06    3.8974767E-07    8.0447313E+06
   -0.43   *******   -1.180E+00    8.0392797E+06    1.2977540E-07    1.3233634E-07    8.0392797E+06    3.8774780E-07    8.0459081E+06
   -0.42   *******   -1.194E+00    8.0377230E+06    1.2867176E-07    1.3123645E-07    8.0377230E+06    3.8594645E-07    8.0448889E+06
   -0.41   *******   -1.208E+00    8.0340367E+06    1.2765089E-07    1.3022014E-07    8.0340367E+06    3.8435353E-07    8.0417570E+06
   -0.40   *******   -1.222E+00    8.0283143E+06    1.2671611E-07    1.2929103E-07    8.0283143E+06    3.8297603E-07    8.0366015E+06
   -0.39   *******   -1.236E+00    8.0206553E+06    1.2586969E-07    1.2845167E-07    8.0206553E+06    3.8181750E-07    8.0295168E+06
   -0.38   *******   -1.250E+00    8.0111648E+06    1.2511263E-07    1.2770336E-07    8.0111648E+06    3.8087752E-07    8.0206026E+06
   -0.37   *******   -1.265E+00    7.9999531E+06    1.2444455E-07    1.2704593E-07    7.9999531E+06    3.8015141E-07    8.0099628E+06
   -0.36   *******   -1.278E+00    7.9871348E+06    1.2386350E-07    1.2647769E-07    7.9871348E+06    3.7963003E-07    7.9977054E+06
   -0.35   *******   -1.292E+00    7.9728283E+06    1.2336598E-07    1.2599531E-07    7.9728283E+06    3.7929979E-07    7.9839422E+06
   -0.34   *******   -1.306E+00    7.9571544E+06    1.2294689E-07    1.2559387E-07    7.9571544E+06    3.7914282E-07    7.9687870E+06
   -0.33   *******   -1.320E+00    7.9402351E+06    1.2259963E-07    1.2526694E-07    7.9402351E+06    3.7913732E-07    7.9523555E+06
   -0.32   *******   -1.334E+00    7.9221918E+06    1.2231622E-07    1.2500665E-07    7.9221918E+06    3.7925801E-07    7.9347630E+06
   -0.31   *******   -1.348E+00    7.9031438E+06    1.2208746E-07    1.2480393E-07    7.9031438E+06    3.7947681E-07    7.9161233E+06
   -0.30   *******   -1.362E+00    7.8832066E+06    1.2190323E-07    1.2464869E-07    7.8832066E+06    3.7976347E-07    7.8965475E+06
   -0.29   *******   -1.375E+00    7.8624909E+06    1.2175264E-07    1.2453013E-07    7.8624909E+06    3.8008637E-07    7.8761428E+06
   -0.28   *******   -1.389E+00    7.8411015E+06    1.2162440E-07    1.2443695E-07    7.8411015E+06    3.8041335E-07    7.8550115E+06
   -0.27   *******   -1.403E+00    7.8191373E+06    1.2150707E-07    1.2435769E-07    7.8191373E+06    3.8071254E-07    7.8332511E+06
   -0.26   *******   -1.417E+00    7.7966914E+06    1.2138934E-07    1.2428095E-07    7.7966914E+06    3.8095316E-07    7.8109547E+06
   -0.25   *******   -1.431E+00    7.7738523E+06    1.2126030E-07    1.2419574E-07    7.7738523E+06    3.8110632E-07    7.7882115E+06
   -0.24   *******   -1.445E+00    7.7507049E+06    1.2110970E-07    1.2409165E-07    7.7507049E+06    3.8114576E-07    7.7651082E+06
   -0.23   *******   -1.459E+00    7.7273316E+06    1.2092822E-07    1.2395914E-07    7.7273316E+06    3.8104853E-07    7.7417298E+06
   -0.22   *******   -1.473E+00    7.7038138E+06    1.2070759E-07    1.2378972E-07    7.7038138E+06    3.8079559E-07    7.7181609E+06
   -0.21   *******   -1.487E+00    7.6802329E+06    1.2044086E-07    1.2357611E-07    7.6802329E+06    3.8037235E-07    7.6944867E+06
   -0.20   *******   -1.501E+00    7.6566704E+06    1.2012249E-07    1.2331247E-07    7.6566704E+06    3.7976905E-07    7.6707925E+06
   -0.19   *******   -1.515E+00    7.6332079E+06    1.1974856E-07    1.2299447E-07    7.6332079E+06    3.7898113E-07    7.6471644E+06
   -0.18   *******   -1.530E+00    7.6099265E+06    1.1931686E-07    1.2261948E-07    7.6099265E+06    3.7800951E-07    7.6236875E+06
   -0.17   *******   -1.544E+00    7.5869062E+06    1.1882703E-07    1.2218667E-07    7.5869062E+06    3.7686079E-07    7.6004460E+06
   -0.16   *******   -1.559E+00    7.5642242E+06    1.1828068E-07    1.2169715E-07    7.5642242E+06    3.7554736E-07    7.5775212E+06
   -0.15   *******   -1.573E+00    7.5419550E+06    1.1768155E-07    1.2115409E-07    7.5419550E+06    3.7408760E-07    7.5549912E+06
   -0.14   *******   -1.588E+00    7.5201699E+06    1.1703560E-07    1.2056290E-07    7.5201699E+06    3.7250593E-07    7.5329308E+06
   -0.13   *******   -1.604E+00    7.4989376E+06    1.1635117E-07    1.1993127E-07    7.4989376E+06    3.7083300E-07    7.5114117E+06
   -0.12   *******   -1.619E+00    7.4783257E+06    1.1563908E-07    1.1926941E-07    7.4783257E+06    3.6910575E-07    7.4905045E+06
   -0.11   *******   -1.634E+00    7.4584029E+06    1.1491276E-07    1.1859006E-07    7.4584029E+06    3.6736754E-07    7.4702803E+06
   -0.10   *******   -1.650E+00    7.4392415E+06    1.1418826E-07    1.1790863E-07    7.4392415E+06    3.6566815E-07    7.4508137E+06
   -0.09   *******   -1.666E+00    7.4209205E+06    1.1348430E-07    1.1724320E-07    7.4209205E+06    3.6406375E-07    7.4321853E+06
   -0.08   *******   -1.682E+00    7.4035274E+06    1.1282220E-07    1.1661445E-07    7.4035274E+06    3.6261669E-07    7.4144844E+06
   -0.07   *******   -1.698E+00    7.3871598E+06    1.1222570E-07    1.1604558E-07    7.3871598E+06    3.6139508E-07    7.3978100E+06
   -0.06   *******   -1.715E+00    7.3719261E+06    1.1172075E-07    1.1556207E-07    7.3719261E+06    3.6047216E-07    7.3822716E+06
   -0.05   *******   -1.731E+00    7.3579440E+06    1.1133515E-07    1.1519132E-07    7.3579440E+06    3.5992548E-07    7.3679879E+06
   -0.04   *******   -1.748E+00    7.3453383E+06    1.1109811E-07    1.1496227E-07    7.3453383E+06    3.5983568E-07    7.3550846E+06
   -0.03   *******   -1.765E+00    7.3342376E+06    1.1103970E-07    1.1490486E-07    7.3342376E+06    3.6028518E-07    7.3436911E+06
   -0.02   *******   -1.783E+00    7.3247699E+06    1.1119026E-07    1.1504940E-07    7.3247699E+06    3.6135651E-07    7.3339358E+06
   -0.01   *******   -1.800E+00    7.3170579E+06    1.1157966E-07    1.1542589E-07    7.3170579E+06    3.6313049E-07    7.3259421E+06
    0.00   *******   -1.818E+00    7.3112144E+06    1.1223655E-07    1.1606322E-07    7.3112144E+06    3.6568413E-07    7.3198232E+06
    0.01   *******   -1.836E+00    7.3073379E+06    1.1318753E-07    1.1698836E-07    7.3073379E+06    3.6908847E-07    7.3156782E+06
    0.02   *******   -1.854E+00    7.3055091E+06    1.1445625E-07    1.1822545E-07    7.3055091E+06    3.7340610E-07    7.3135880E+06
    0.03   *******   -1.873E+00    7.3057872E+06    1.1606252E-07    1.1979482E-07    7.3057872E+06    3.7868871E-07    7.3136122E+06
    0.04   *******   -1.891E+00    7.3082073E+06    1.1802130E-07    1.2171208E-07    7.3082073E+06    3.8497441E-07    7.3157865E+06
    0.05   *******   -1.910E+00    7.3127774E+06    1.2034180E-07    1.2398707E-07    7.3127774E+06    3.9228504E-07    7.3201190E+06
    0.06   *******   -1.929E+00    7.3194748E+06    1.2302646E-07    1.2662293E-07    7.3194748E+06    4.0062353E-07    7.3265871E+06
    0.07   *******   -1.948E+00    7.3282417E+06    1.2607011E-07    1.2961516E-07    7.3282417E+06    4.0997132E-07    7.3351335E+06
    0.08   *******   -1.968E+00    7.3389797E+06    1.2945912E-07    1.3295080E-07    7.3389797E+06    4.2028603E-07    7.3456599E+06
    0.09   *******   -1.987E+00    7.3515427E+06    1.3317078E-07    1.3660775E-07    7.3515427E+06    4.3149950E-07    7.3580203E+06
    0.10   *******   -2.007E+00    7.3657286E+06    1.3717281E-07    1.4055433E-07    7.3657286E+06    4.4351643E-07    7.3720125E+06
    0.11   *******   -2.027E+00    7.3812692E+06    1.4142319E-07    1.4474902E-07    7.3812692E+06    4.5621370E-07    7.3873684E+06
    0.12   *******   -2.047E+00    7.3978207E+06    1.4587033E-07    1.4914069E-07    7.3978207E+06    4.6944067E-07    7.4037440E+06
    0.13   *******   -2.067E+00    7.4149536E+06    1.5045358E-07    1.5366905E-07    7.4149536E+06    4.8302054E-07    7.4207097E+06
    0.14   *******   -2.088E+00    7.4321437E+06    1.5510415E-07    1.5826563E-07    7.4321437E+06    4.9675287E-07    7.4377409E+06
    0.15   *******   -2.108E+00    7.4487660E+06    1.5974652E-07    1.6285511E-07    7.4487660E+06    5.1041735E-07    7.4542123E+06
    0.16   *******   -2.129E+00    7.4640906E+06    1.6430015E-07    1.6735711E-07    7.4640906E+06    5.2377876E-07    7.4693935E+06
    0.17   *******   -2.150E+00    7.4772826E+06    1.6868160E-07    1.7168822E-07    7.4772826E+06    5.3659283E-07    7.4824491E+06
    0.18   *******   -2.171E+00    7.4874061E+06    1.7280683E-07    1.7576439E-07    7.4874061E+06    5.4861298E-07    7.4924429E+06
    0.19   *******   -2.193E+00    7.4934325E+06    1.7659368E-07    1.7950335E-07    7.4934325E+06    5.5959732E-07    7.4983455E+06
    0.20   *******   -2.214E+00    7.4942528E+06    1.7996422E-07    1.8282701E-07    7.4942528E+06    5.6931568E-07    7.4990473E+06
# T(K) = 1100.00   Npoints =     441   V(cm^3) =  3.848E-22
   -4.20   *******    9.408E+00    7.3402255E+05    4.7419611E-08    4.7539538E-08    7.3402255E+05    1.1826899E-07    7.3433812E+05
   -4.19   *******    9.356E+00    7.6429625E+05    5.0230373E-08    5.0356131E-08    7.6429625E+05    1.2534183E-07    7.6461697E+05
   -4.18   *******    9.301E+00    7.9458994E+05    5.3083423E-08    5.3214896E-08    7.9458994E+05    1.3252939E-07    7.9491514E+05
   -4.17   *******    9.242E+00    8.2484660E+05    5.5961256E-08    5.6098268E-08    8.2484660E+05    1.3978965E-07    8.2517558E+05
   -4.16   *******    9.181E+00    8.5501833E+05    5.8844626E-08    5.8986941E-08    8.5501833E+05    1.4707642E-07    8.5535040E+05
   -4.15   *******    9.116E+00    8.8506782E+05    6.1712865E-08    6.1860182E-08    8.8506782E+05    1.5434014E-07    8.8540230E+05
   -4.14   *******    9.049E+00    9.1496948E+05    6.4544282E-08    6.4696237E-08    9.1496948E+05    1.6152880E-07    9.1530569E+05
   -4.13   *******    8.978E+00    9.4471022E+05    6.7316648E-08    6.7472808E-08    9.4471022E+05    1.6858909E-07    9.4504745E+05
   -4.12   *******    8.904E+00    9.7428974E+05    7.0007743E-08    7.0167611E-08    9.7428974E+05    1.7546768E-07    9.7462731E+05
   -4.11   *******    8.826E+00    1.0037204E+06    7.2595956E-08    7.2758967E-08    1.0037204E+06    1.8211266E-07    1.0040576E+06
   -4.10   *******    8.746E+00    1.0330262E+06    7.5060888E-08    7.5226413E-08    1.0330262E+06    1.8847490E-07    1.0333623E+06
   -4.09   *******    8.662E+00    1.0622418E+06    7.7383957E-08    7.7551305E-08    1.0622418E+06    1.9450950E-07    1.0625761E+06
   -4.08   *******    8.576E+00    1.0914099E+06    7.9548943E-08    7.9717360E-08    1.0914099E+06    2.0017701E-07    1.0917417E+06
   -4.07   *******    8.486E+00    1.1205794E+06    8.1542453E-08    8.1711126E-08    1.1205794E+06    2.0544450E-07    1.1209080E+06
   -4.06   *******    8.394E+00    1.1498017E+06    8.3354266E-08    8.3522324E-08    1.1498017E+06    2.1028638E-07    1.1501262E+06
   -4.05   *******    8.300E+00    1.1791275E+06    8.4977542E-08    8.5144058E-08    1.1791275E+06    2.1468480E-07    1.1794473E+06
   -4.04   *******    8.203E+00    1.2086035E+06    8.6408864E-08    8.6572857E-08    1.2086035E+06    2.1862975E-07    1.2089178E+06
   -4.03   *******    8.103E+00    1.2382685E+06    8.7648118E-08    8.7808554E-08    1.2382685E+06    2.2211872E-07    1.2385765E+06
   -4.02   *******    8.002E+00    1.2681502E+06    8.8698204E-08    8.8854000E-08    1.2681502E+06    2.2515601E-07    1.2684511E+06
   -4.01   *******    7.898E+00    1.2982623E+06    8.9564614E-08    8.9714638E-08    1.2982623E+06    2.2775173E-07    1.2985555E+06
   -4.00   *******    7.793E+00    1.3286025E+06    9.0254885E-08    9.0397961E-08    1.3286025E+06    2.2992046E-07    1.3288873E+06
   -3.99   *******    7.687E+00    1.3591508E+06    9.0777983E-08    9.0912894E-08    1.3591508E+06    2.3167983E-07    1.3594266E+06
   -3.98   *******    7.579E+00    1.3898691E+06    9.1143656E-08    9.1269151E-08    1.3898691E+06    2.3304901E-07    1.3901352E+06
   -3.97   *******    7.470E+00    1.4207016E+06    9.1361794E-08    9.1476593E-08    1.4207016E+06    2.3404717E-07    1.4209576E+06
   -3.96   *******    7.360E+00    1.4515767E+06    9.1441859E-08    9.1544660E-08    1.4515767E+06    2.3469222E-07    1.4518221E+06
   -3.95   *******    7.249E+00    1.4824088E+06    9.1392396E-08    9.1481887E-08    1.4824088E+06    2.3499969E-07    1.4826433E+06
   -3.94   *******    7.138E+00    1.5131022E+06    9.1220679E-08    9.1295547E-08    1.5131022E+06    2.3498193E-07    1.5133255E+06
   -3.93   *******    7.026E+00    1.5435545E+06    9.0932490E-08    9.0991436E-08    1.5435545E+06    2.3464767E-07    1.5437664E+06
   -3.92   *******    6.915E+00    1.5736612E+06    9.0532051E-08    9.0573800E-08    1.5736612E+06    2.3400189E-07    1.5738616E+06
   -3.91   *******    6.803E+00    1.6033200E+06    9.0022080E-08    9.0045397E-08    1.6033200E+06    2.3304613E-07    1.6035090E+06
   -3.90   *******    6.692E+00    1.6324358E+06    8.9403986E-08    8.9407690E-08    1.6324358E+06    2.3177893E-07    1.6326135E+06
   -3.89   *******    6.581E+00    1.6609245E+06    8.8678155E-08    8.8661131E-08    1.6609245E+06    2.3019668E-07    1.6610910E+06
   -3.88   *******    6.471E+00    1.6887169E+06    8.7844304E-08    8.7805516E-08    1.6887169E+06    2.2829454E-07    1.6888725E+06
   -3.87   *******    6.362E+00    1.7157623E+06    8.6901878E-08    8.6840381E-08    1.7157623E+06    2.2606748E-07    1.7159073E+06
   -3.86   *******    6.254E+00    1.7420306E+06    8.5850463E-08    8.5765409E-08    1.7420306E+06    2.2351135E-07    1.7421654E+06
   -3.85   *******    6.148E+00    1.7675139E+06    8.4690167E-08    8.4580816E-08    1.7675139E+06    2.2062389E-07    1.7676388E+06
   -3.84   *******    6.043E+00    1.7922272E+06    8.3421975E-08    8.3287693E-08    1.7922272E+06    2.1740567E-07    1.7923428E+06
   -3.83   *******    5.939E+00    1.8162085E+06    8.2048035E-08    8.1888302E-08    1.8162085E+06    2.1386081E-07    1.8163152E+06
   -3.82   *******    5.838E+00    1.8395176E+06    8.0571876E-08    8.0386279E-08    1.8395176E+06    2.0999759E-07    1.8396158E+06
   -3.81   *******    5.739E+00    1.8622343E+06    7.8998541E-08    7.8786775E-08    1.8622343E+06    2.0582881E-07    1.8623246E+06
   -3.80   *******    5.642E+00    1.8844563E+06    7.7334643E-08    7.7096504E-08    1.8844563E+06    2.0137189E-07    1.8845392E+06
   -3.79   *******    5.547E+00    1.9062962E+06    7.5588335E-08    7.5323714E-08    1.9062962E+06    1.9664887E-07    1.9063720E+06
   -3.78   *******    5.455E+00    1.9278781E+06    7.3769206E-08    7.3478079E-08    1.9278781E+06    1.9168609E-07    1.9279475E+06
   -3.77   *******    5.366E+00    1.9493347E+06    7.1888109E-08    7.1570533E-08    1.9493347E+06    1.8651373E-07    1.9493981E+06
   -3.76   *******    5.279E+00    1.9708033E+06    6.9956940E-08    6.9613041E-08    1.9708033E+06    1.8116527E-07    1.9708611E+06
   -3.75   *******    5.195E+00    1.9924223E+06    6.7988369E-08    6.7618335E-08    1.9924223E+06    1.7567667E-07    1.9924750E+06
   -3.74   *******    5.114E+00    2.0143280E+06    6.5995550E-08    6.5599625E-08    2.0143280E+06    1.7008566E-07    2.0143760E+06
   -3.73   *******    5.036E+00    2.0366515E+06    6.3991822E-08    6.3570299E-08    2.0366515E+06    1.6443084E-07    2.0366951E+06
   -3.72   *******    4.960E+00    2.0595154E+06    6.1990407E-08    6.1543624E-08    2.0595154E+06    1.5875085E-07    2.0595550E+06
   -3.71   *******    4.888E+00    2.0830318E+06    6.0004138E-08    5.9532471E-08    2.0830318E+06    1.5308359E-07    2.0830678E+06
   -3.70   *******    4.818E+00    2.1072999E+06    5.8045203E-08    5.7549065E-08    2.1072999E+06    1.4746545E-07    2.1073326E+06
   -3.69   *******    4.752E+00    2.1324045E+06    5.6124937E-08    5.5604774E-08    2.1324045E+06    1.4193065E-07    2.1324341E+06
   -3.68   *******    4.688E+00    2.1584147E+06    5.4253656E-08    5.3709943E-08    2.1584147E+06    1.3651074E-07    2.1584415E+06
   -3.67   *******    4.626E+00    2.1853832E+06    5.2440532E-08    5.1873773E-08    2.1853832E+06    1.3123416E-07    2.1854075E+06
   -3.66   *******    4.568E+00    2.2133459E+06    5.0693518E-08    5.0104242E-08    2.2133459E+06    1.2612591E-07    2.2133679E+06
   -3.65   *******    4.512E+00    2.2423222E+06    4.9019320E-08    4.8408076E-08    2.2423222E+06    1.2120746E-07    2.2423421E+06
   -3.64   *******    4.458E+00    2.2723151E+06    4.7423398E-08    4.6790752E-08    2.2723151E+06    1.1649656E-07    2.2723332E+06
   -3.63   *******    4.406E+00    2.3033123E+06    4.5910001E-08    4.5256532E-08    2.3033123E+06    1.1200739E-07    2.3033286E+06
   -3.62   *******    4.357E+00    2.3352867E+06    4.4482228E-08    4.3808522E-08    2.3352867E+06    1.0775057E-07    2.3353015E+06
   -3.61   *******    4.310E+00    2.3681980E+06    4.3142103E-08    4.2448746E-08    2.3681980E+06    1.0373339E-07    2.3682115E+06
   -3.60   *******    4.265E+00    2.4019939E+06    4.1890652E-08    4.1178225E-08    2.4019939E+06    9.9959981E-08    2.4020062E+06
   -3.59   *******    4.221E+00    2.4366114E+06    4.0727997E-08    3.9997067E-08    2.4366114E+06    9.6431607E-08    2.4366225E+06
   -3.58   *******    4.179E+00    2.4719783E+06    3.9653430E-08    3.8904547E-08    2.4719783E+06    9.3146882E-08    2.4719884E+06
   -3.57   *******    4.139E+00    2.5080146E+06    3.8665500E-08    3.7899186E-08    2.5080146E+06    9.0102063E-08    2.5080238E+06
   -3.56   *******    4.100E+00    2.5446343E+06    3.7762079E-08    3.6978827E-08    2.5446343E+06    8.7291307E-08    2.5446427E+06
   -3.55   *******    4.063E+00    2.5817465E+06    3.6940432E-08    3.6140695E-08    2.5817465E+06    8.4706932E-08    2.5817542E+06
   -3.54   *******    4.026E+00    2.6192570E+06    3.6197271E-08    3.5381465E-08    2.6192570E+06    8.2339664E-08    2.6192641E+06
   -3.53   *******    3.991E+00    2.6570698E+06    3.5528817E-08    3.4697313E-08    2.6570698E+06    8.0178880E-08    2.6570764E+06
   -3.52   *******    3.957E+00    2.6950881E+06    3.4930847E-08    3.4083971E-08    2.6950881E+06    7.8212830E-08    2.6950942E+06
   -3.51   *******    3.923E+00    2.7332159E+06    3.4398754E-08    3.3536783E-08    2.7332159E+06    7.6428862E-08    2.7332215E+06
   -3.50   *******    3.890E+00    2.7713588E+06    3.3927591E-08    3.3050758E-08    2.7713588E+06    7.4813628E-08    2.7713641E+06
   -3.49   *******    3.858E+00    2.8094254E+06    3.3512138E-08    3.2620630E-08    2.8094254E+06    7.3353291E-08    2.8094304E+06
   -3.48   *******    3.827E+00    2.8473280E+06    3.3146959E-08    3.2240922E-08    2.8473280E+06    7.2033721E-08    2.8473328E+06
   -3.47   *******    3.796E+00    2.8849834E+06    3.2826468E-08    3.1906009E-08    2.8849834E+06    7.0840691E-08    2.8849881E+06
   -3.46   *******    3.765E+00    2.9223136E+06    3.2545002E-08    3.1610192E-08    2.9223136E+06    6.9760060E-08    2.9223181E+06
   -3.45   *******    3.735E+00    2.9592459E+06    3.2296894E-08    3.1347775E-08    2.9592459E+06    6.8777956E-08    2.9592503E+06
   -3.44   *******    3.705E+00    2.9957135E+06    3.2076551E-08    3.1113140E-08    2.9957135E+06    6.7880943E-08    2.9957179E+06
   -3.43   *******    3.675E+00    3.0316553E+06    3.1878531E-08    3.0900828E-08    3.0316553E+06    6.7056180E-08    3.0316597E+06
   -3.42   *******    3.645E+00    3.0670156E+06    3.1697622E-08    3.0705616E-08    3.0670156E+06    6.6291567E-08    3.0670201E+06
   -3.41   *******    3.616E+00    3.1017442E+06    3.1528919E-08    3.0522593E-08    3.1017442E+06    6.5575865E-08    3.1017488E+06
   -3.40   *******    3.586E+00    3.1357956E+06    3.1367887E-08    3.0347228E-08    3.1357956E+06    6.4898808E-08    3.1358004E+06
   -3.39   *******    3.557E+00    3.1691284E+06    3.1210425E-08    3.0175431E-08    3.1691284E+06    6.4251179E-08    3.1691334E+06
   -3.38   *******    3.527E+00    3.2017049E+06    3.1052918E-08    3.0003607E-08    3.2017049E+06    6.3624877E-08    3.2017102E+06
   -3.37   *******    3.498E+00    3.2334902E+06    3.0892273E-08    2.9828691E-08    3.2334902E+06    6.3012946E-08    3.2334958E+06
   -3.36   *******    3.468E+00    3.2644517E+06    3.0725950E-08    2.9648176E-08    3.2644517E+06    6.2409596E-08    3.2644577E+06
   -3.35   *******    3.438E+00    3.2945583E+06    3.0551966E-08    2.9460126E-08    3.2945583E+06    6.1810188E-08    3.2945648E+06
   -3.34   *******    3.408E+00    3.3237801E+06    3.0368903E-08    2.9263173E-08    3.3237801E+06    6.1211216E-08    3.3237871E+06
   -3.33   *******    3.378E+00    3.3520878E+06    3.0175886E-08    2.9056500E-08    3.3520878E+06    6.0610259E-08    3.3520954E+06
   -3.32   *******    3.348E+00    3.3794525E+06    2.9972558E-08    2.8839812E-08    3.3794525E+06    6.0005929E-08    3.3794608E+06
   -3.31   *******    3.318E+00    3.4058457E+06    2.9759041E-08    2.8613299E-08    3.4058457E+06    5.9397801E-08    3.4058548E+06
   -3.30   *******    3.287E+00    3.4312392E+06    2.9535886E-08    2.8377579E-08    3.4312392E+06    5.8786340E-08    3.4312492E+06
   -3.29   *******    3.256E+00    3.4556054E+06    2.9304014E-08    2.8133643E-08    3.4556054E+06    5.8172813E-08    3.4556164E+06
   -3.28   *******    3.225E+00    3.4789175E+06    2.9064658E-08    2.7882786E-08    3.4789175E+06    5.7559197E-08    3.4789297E+06
   -3.27   *******    3.193E+00    3.5011504E+06    2.8819287E-08    2.7626540E-08    3.5011504E+06    5.6948082E-08    3.5011638E+06
   -3.26   *******    3.162E+00    3.5222807E+06    2.8569545E-08    2.7366599E-08    3.5222807E+06    5.6342567E-08    3.5222955E+06
   -3.25   *******    3.130E+00    3.5422878E+06    2.8317175E-08    2.7104751E-08    3.5422878E+06    5.5746159E-08    3.5423042E+06
   -3.24   *******    3.098E+00    3.5611542E+06    2.8063959E-08    2.6842809E-08    3.5611542E+06    5.5162660E-08    3.5611723E+06
   -3.23   *******    3.065E+00    3.5788662E+06    2.7811653E-08    2.6582547E-08    3.5788662E+06    5.4596069E-08    3.5788863E+06
   -3.22   *******    3.032E+00    3.5954146E+06    2.7561936E-08    2.6325652E-08    3.5954146E+06    5.4050476E-08    3.5954368E+06
   -3.21   *******    2.999E+00    3.6107949E+06    2.7316363E-08    2.6073668E-08    3.6107949E+06    5.3529966E-08    3.6108195E+06
   -3.20   *******    2.965E+00    3.6250079E+06    2.7076327E-08    2.5827970E-08    3.6250079E+06    5.3038526E-08    3.6250351E+06
   -3.19   *******    2.931E+00    3.6380596E+06    2.6843036E-08    2.5589733E-08    3.6380596E+06    5.2579960E-08    3.6380898E+06
   -3.18   *******    2.897E+00    3.6499614E+06    2.6617495E-08    2.5359914E-08    3.6499614E+06    5.2157814E-08    3.6499949E+06
   -3.17   *******    2.862E+00    3.6607297E+06    2.6400492E-08    2.5139250E-08    3.6607297E+06    5.1775301E-08    3.6607668E+06
   -3.16   *******    2.826E+00    3.6703853E+06    2.6192603E-08    2.4928254E-08    3.6703853E+06    5.1435238E-08    3.6704264E+06
   -3.15   *******    2.790E+00    3.6789525E+06    2.5994188E-08    2.4727221E-08    3.6789525E+06    5.1139988E-08    3.6789981E+06
   -3.14   *******    2.753E+00    3.6864582E+06    2.5805405E-08    2.4536240E-08    3.6864582E+06    5.0891401E-08    3.6865088E+06
   -3.13   *******    2.716E+00    3.6929300E+06    2.5626217E-08    2.4355203E-08    3.6929300E+06    5.0690772E-08    3.6929860E+06
   -3.12   *******    2.678E+00    3.6983945E+06    2.5456404E-08    2.4183823E-08    3.6983945E+06    5.0538788E-08    3.6984565E+06
   -3.11   *******    2.640E+00    3.7028757E+06    2.5295574E-08    2.4021641E-08    3.7028757E+06    5.0435495E-08    3.7029444E+06
   -3.10   *******    2.600E+00    3.7063924E+06    2.5143172E-08    2.3868046E-08    3.7063924E+06    5.0380255E-08    3.7064684E+06
   -3.09   *******    2.560E+00    3.7089562E+06    2.4998491E-08    2.3722276E-08    3.7089562E+06    5.0371716E-08    3.7090404E+06
   -3.08   *******    2.519E+00    3.7105695E+06    2.4860680E-08    2.3583435E-08    3.7105695E+06    5.0407791E-08    3.7106627E+06
   -3.07   *******    2.477E+00    3.7112234E+06    2.4728748E-08    2.3450497E-08    3.7112234E+06    5.0485632E-08    3.7113264E+06
   -3.06   *******    2.435E+00    3.7108959E+06    2.4601569E-08    2.3322310E-08    3.7108959E+06    5.0601622E-08    3.7110097E+06
   -3.05   *******    2.391E+00    3.7095507E+06    2.4477889E-08    2.3197600E-08    3.7095507E+06    5.0751368E-08    3.7096765E+06
   -3.04   *******    2.346E+00    3.7071366E+06    2.4356326E-08    2.3074978E-08    3.7071366E+06    5.0929709E-08    3.7072755E+06
   -3.03   *******    2.301E+00    3.7035866E+06    2.4235374E-08    2.2952939E-08    3.7035866E+06    5.1130730E-08    3.7037400E+06
   -3.02   *******    2.254E+00    3.6988191E+06    2.4113409E-08    2.2829866E-08    3.6988191E+06    5.1347790E-08    3.6989882E+06
   -3.01   *******    2.206E+00    3.6927379E+06    2.3988689E-08    2.2704037E-08    3.6927379E+06    5.1573567E-08    3.6929243E+06
   -3.00   *******    2.158E+00    3.6852348E+06    2.3859369E-08    2.2573629E-08    3.6852348E+06    5.1800112E-08    3.6854400E+06
   -2.99   *******    2.108E+00    3.6761911E+06    2.3723502E-08    2.2436726E-08    3.6761911E+06    5.2018931E-08    3.6764168E+06
   -2.98   *******    2.058E+00    3.6654807E+06    2.3579063E-08    2.2291340E-08    3.6654807E+06    5.2221076E-08    3.6657287E+06
   -2.97   *******    2.007E+00    3.6529732E+06    2.3423966E-08    2.2135421E-08    3.6529732E+06    5.2397271E-08    3.6532455E+06
   -2.96   *******    1.954E+00    3.6385376E+06    2.3256086E-08    2.1966892E-08    3.6385376E+06    5.2538043E-08    3.6388361E+06
   -2.95   *******    1.902E+00    3.6220455E+06    2.3073301E-08    2.1783674E-08    3.6220455E+06    5.2633891E-08    3.6223725E+06
   -2.94   *******    1.848E+00    3.6033753E+06    2.2873522E-08    2.1583729E-08    3.6033753E+06    5.2675463E-08    3.6037329E+06
   -2.93   *******    1.794E+00    3.5824152E+06    2.2654747E-08    2.1365101E-08    3.5824152E+06    5.2653754E-08    3.5828056E+06
   -2.92   *******    1.739E+00    3.5590666E+06    2.2415103E-08    2.1125971E-08    3.5590666E+06    5.2560305E-08    3.5594924E+06
   -2.91   *******    1.684E+00    3.5332471E+06    2.2152903E-08    2.0864700E-08    3.5332471E+06    5.2387419E-08    3.5337107E+06
   -2.90   *******    1.629E+00    3.5048926E+06    2.1866699E-08    2.0579891E-08    3.5048926E+06    5.2128355E-08    3.5053963E+06
   -2.89   *******    1.573E+00    3.4739586E+06    2.1555328E-08    2.0270431E-08    3.4739586E+06    5.1777522E-08    3.4745051E+06
   -2.88   *******    1.518E+00    3.4404224E+06    2.1217963E-08    1.9935540E-08    3.4404224E+06    5.1330637E-08    3.4410140E+06
   -2.87   *******    1.463E+00    3.4042825E+06    2.0854146E-08    1.9574809E-08    3.4042825E+06    5.0784865E-08    3.4049217E+06
   -2.86   *******    1.408E+00    3.3655592E+06    2.0463818E-08    1.9188224E-08    3.3655592E+06    5.0138905E-08    3.3662484E+06
   -2.85   *******    1.353E+00    3.3242940E+06    2.0047337E-08    1.8776186E-08    3.3242940E+06    4.9393049E-08    3.3250353E+06
   -2.84   *******    1.299E+00    3.2805480E+06    1.9605478E-08    1.8339511E-08    3.2805480E+06    4.8549183E-08    3.2813437E+06
   -2.83   *******    1.246E+00    3.2344010E+06    1.9139425E-08    1.7879422E-08    3.2344010E+06    4.7610739E-08    3.2352531E+06
   -2.82   *******    1.194E+00    3.1859494E+06    1.8650747E-08    1.7397525E-08    3.1859494E+06    4.6582614E-08    3.1868597E+06
   -2.81   *******    1.143E+00    3.1353040E+06    1.8141367E-08    1.6895771E-08    3.1353040E+06    4.5471028E-08    3.1362739E+06
   -2.80   *******    1.092E+00    3.0825876E+06    1.7613509E-08    1.6376417E-08    3.0825876E+06    4.4283364E-08    3.0836186E+06
   -2.79   *******    1.043E+00    3.0279331E+06    1.7069652E-08    1.5841963E-08    3.0279331E+06    4.3027965E-08    3.0290263E+06
   -2.78   *******    9.952E-01    2.9714807E+06    1.6512464E-08    1.5295101E-08    2.9714807E+06    4.1713915E-08    2.9726367E+06
   -2.77   *******    9.486E-01    2.9133756E+06    1.5944744E-08    1.4738644E-08    2.9133756E+06    4.0350815E-08    2.9145950E+06
   -2.76   *******    9.034E-01    2.8537661E+06    1.5369353E-08    1.4175467E-08    2.8537661E+06    3.8948543E-08    2.8550492E+06
   -2.75   *******    8.597E-01    2.7928016E+06    1.4789158E-08    1.3608444E-08    2.7928016E+06    3.7517036E-08    2.7941481E+06
   -2.74   *******    8.174E-01    2.7306306E+06    1.4206969E-08    1.3040390E-08    2.7306306E+06    3.6066072E-08    2.7320400E+06
   -2.73   *******    7.766E-01    2.6673994E+06    1.3625493E-08    1.2474009E-08    2.6673994E+06    3.4605086E-08    2.6688710E+06
   -2.72   *******    7.373E-01    2.6032509E+06    1.3047284E-08    1.1911851E-08    2.6032509E+06    3.3143002E-08    2.6047837E+06
   -2.71   *******    6.996E-01    2.5383236E+06    1.2474712E-08    1.1356277E-08    2.5383236E+06    3.1688103E-08    2.5399163E+06
   -2.70   *******    6.634E-01    2.4727511E+06    1.1909936E-08    1.0809431E-08    2.4727511E+06    3.0247922E-08    2.4744019E+06
   -2.69   *******    6.287E-01    2.4066611E+06    1.1354882E-08    1.0273222E-08    2.4066611E+06    2.8829179E-08    2.4083682E+06
   -2.68   *******    5.954E-01    2.3401759E+06    1.0811238E-08    9.7493151E-09    2.3401759E+06    2.7437738E-08    2.3419371E+06
   -2.67   *******    5.636E-01    2.2734115E+06    1.0280450E-08    9.2391307E-09    2.2734115E+06    2.6078592E-08    2.2752245E+06
   -2.66   *******    5.332E-01    2.2064783E+06    9.7637261E-09    8.7438476E-09    2.2064783E+06    2.4755885E-08    2.2083404E+06
   -2.65   *******    5.042E-01    2.1394809E+06    9.2620504E-09    8.2644144E-09    2.1394809E+06    2.3472940E-08    2.1413893E+06
   -2.64   *******    4.765E-01    2.0725185E+06    8.7761938E-09    7.8015646E-09    2.0725185E+06    2.2232317E-08    2.0744703E+06
   -2.63   *******    4.501E-01    2.0056855E+06    8.3067346E-09    7.3558339E-09    2.0056855E+06    2.1035873E-08    2.0076774E+06
   -2.62   *******    4.250E-01    1.9390713E+06    7.8540770E-09    6.9275805E-09    1.9390713E+06    1.9884838E-08    1.9411000E+06
   -2.61   *******    4.010E-01    1.8727611E+06    7.4184721E-09    6.5170051E-09    1.8727611E+06    1.8779892E-08    1.8748232E+06
   -2.60   *******    3.783E-01    1.8068365E+06    7.0000381E-09    6.1241715E-09    1.8068365E+06    1.7721245E-08    1.8089283E+06
   -2.59   *******    3.566E-01    1.7413754E+06    6.5987793E-09    5.7490256E-09    1.7413754E+06    1.6708708E-08    1.7434933E+06
   -2.58   *******    3.360E-01    1.6764529E+06    6.2146041E-09    5.3914136E-09    1.6764529E+06    1.5741772E-08    1.6785929E+06
   -2.57   *******    3.164E-01    1.6121414E+06    5.8473405E-09    5.0510976E-09    1.6121414E+06    1.4819668E-08    1.6142996E+06
   -2.56   *******    2.977E-01    1.5485112E+06    5.4967498E-09    4.7277696E-09    1.5485112E+06    1.3941427E-08    1.5506834E+06
   -2.55   *******    2.800E-01    1.4856304E+06    5.1625385E-09    4.4210640E-09    1.4856304E+06    1.3105932E-08    1.4878126E+06
   -2.54   *******    2.632E-01    1.4235658E+06    4.8443682E-09    4.1305678E-09    1.4235658E+06    1.2311961E-08    1.4257538E+06
   -2.53   *******    2.472E-01    1.3623829E+06    4.5418634E-09    3.8558293E-09    1.3623829E+06    1.1558221E-08    1.3645723E+06
   -2.52   *******    2.320E-01    1.3021460E+06    4.2546196E-09    3.5963664E-09    1.3021460E+06    1.0843375E-08    1.3043324E+06
   -2.51   *******    2.176E-01    1.2429183E+06    3.9822084E-09    3.3516732E-09    1.2429183E+06    1.0166070E-08    1.2450973E+06
   -2.50   *******    2.040E-01    1.1847624E+06    3.7241834E-09    3.1212260E-09    1.1847624E+06    9.5249485E-09    1.1869294E+06
   -2.49   *******    1.910E-01    1.1277397E+06    3.4800855E-09    2.9044897E-09    1.1277397E+06    8.9186616E-09    1.1298902E+06
   -2.48   *******    1.787E-01    1.0719109E+06    3.2494470E-09    2.7009230E-09    1.0719109E+06    8.3458813E-09    1.0740404E+06
   -2.47   *******    1.671E-01    1.0173357E+06    3.0317967E-09    2.5099834E-09    1.0173357E+06    7.8053048E-09    1.0194396E+06
   -2.46   *******    1.560E-01    9.6407218E+05    2.8266636E-09    2.3311325E-09    9.6407218E+05    7.2956600E-09    9.6614597E+05
   -2.45   *******    1.456E-01    9.1217715E+05    2.6335817E-09    2.1638402E-09    9.1217715E+05    6.8157094E-09    9.1421634E+05
   -2.44   *******    1.357E-01    8.6170531E+05    2.4520928E-09    2.0075895E-09    8.6170531E+05    6.3642532E-09    8.6370555E+05
   -2.43   *******    1.263E-01    8.1270904E+05    2.2817509E-09    1.8618794E-09    8.1270904E+05    5.9401323E-09    8.1466609E+05
   -2.42   *******    1.175E-01    7.6523780E+05    2.1221243E-09    1.7262288E-09    7.6523780E+05    5.5422317E-09    7.6714759E+05
   -2.41   *******    1.092E-01    7.1933761E+05    1.9727986E-09    1.6001787E-09    7.1933761E+05    5.1694833E-09    7.2119629E+05
   -2.40   *******    1.013E-01    6.7505045E+05    1.8333783E-09    1.4832941E-09    6.7505045E+05    4.8208691E-09    6.7685445E+05
   -2.39   *******    9.390E-02    6.3241369E+05    1.7034878E-09    1.3751655E-09    6.3241369E+05    4.4954248E-09    6.3415971E+05
   -2.38   *******    8.693E-02    5.9145940E+05    1.5827730E-09    1.2754097E-09    5.9145940E+05    4.1922426E-09    5.9314451E+05
   -2.37   *******    8.037E-02    5.5221385E+05    1.4709009E-09    1.1836699E-09    5.5221385E+05    3.9104742E-09    5.5383548E+05
   -2.36   *******    7.422E-02    5.1469693E+05    1.3675602E-09    1.0996162E-09    5.1469693E+05    3.6493332E-09    5.1625292E+05
   -2.35   *******    6.845E-02    4.7892168E+05    1.2724610E-09    1.0229448E-09    4.7892168E+05    3.4080970E-09    4.8041032E+05
   -2.34   *******    6.305E-02    4.4489395E+05    1.1853345E-09    9.5337835E-10    4.4489395E+05    3.1861088E-09    4.4631397E+05
   -2.33   *******    5.801E-02    4.1261213E+05    1.1059334E-09    8.9066524E-10    4.1261213E+05    2.9827778E-09    4.1396272E+05
   -2.32   *******    5.330E-02    3.8206706E+05    1.0340312E-09    8.3457987E-10    3.8206706E+05    2.7975810E-09    3.8334787E+05
   -2.31   *******    4.890E-02    3.5324201E+05    9.6942342E-10    7.8492273E-10    3.5324201E+05    2.6300629E-09    3.5445314E+05
   -2.30   *******    4.482E-02    3.2611291E+05    9.1192764E-10    7.4152088E-10    3.2611291E+05    2.4798370E-09    3.2725489E+05
   -2.29   *******    4.102E-02    3.0064866E+05    8.6138493E-10    7.0422883E-10    3.0064866E+05    2.3465861E-09    3.0172243E+05
   -2.28   *******    3.750E-02    2.7681155E+05    8.1766127E-10    6.7292967E-10    2.7681155E+05    2.2300636E-09    2.7781844E+05
   -2.27   *******    3.424E-02    2.5455794E+05    7.8064941E-10    6.4753669E-10    2.5455794E+05    2.1300964E-09    2.5549961E+05
   -2.26   *******    3.122E-02    2.3383887E+05    7.5027108E-10    6.2799518E-10    2.3383887E+05    2.0465865E-09    2.3471728E+05
   -2.25   *******    2.843E-02    2.1460087E+05    7.2647968E-10    6.1428464E-10    2.1460087E+05    1.9795157E-09    2.1541826E+05
   -2.24   *******    2.586E-02    1.9678681E+05    7.0926308E-10    6.0642126E-10    1.9678681E+05    1.9289501E-09    1.9754561E+05
   -2.23   *******    2.350E-02    1.8033675E+05    6.9864685E-10    6.0446061E-10    1.8033675E+05    1.8950460E-09    1.8103956E+05
   -2.22   *******    2.132E-02    1.6518880E+05    6.9469768E-10    6.0850065E-10    1.6518880E+05    1.8780565E-09    1.6583835E+05
   -2.21   *******    1.931E-02    1.5127999E+05    6.9752700E-10    6.1868493E-10    1.5127999E+05    1.8783399E-09    1.5187908E+05
   -2.20   *******    1.747E-02    1.3854707E+05    7.0729486E-10    6.3520597E-10    1.3854707E+05    1.8963684E-09    1.3909856E+05
   -2.19   *******    1.578E-02    1.2692729E+05    7.2421397E-10    6.5830901E-10    1.2692729E+05    1.9327381E-09    1.2743404E+05
   -2.18   *******    1.422E-02    1.1635908E+05    7.4855400E-10    6.8829583E-10    1.1635908E+05    1.9881797E-09    1.1682392E+05
   -2.17   *******    1.280E-02    1.0678266E+05    7.8064602E-10    7.2552897E-10    1.0678266E+05    2.0635703E-09    1.0720838E+05
   -2.16   *******    1.149E-02    9.8140626E+04    8.2088725E-10    7.7043611E-10    9.8140626E+04    2.1599454E-09    9.8529938E+04
   -2.15   *******    1.029E-02    9.0378353E+04    8.6974595E-10    8.2351476E-10    9.0378353E+04    2.2785127E-09    9.0733877E+04
   -2.14   *******    9.186E-03    8.3444430E+04    9.2776664E-10    8.8533726E-10    8.3444430E+04    2.4206656E-09    8.3768683E+04
   -2.13   *******    8.169E-03    7.7290955E+04    9.9557555E-10    9.5655605E-10    7.7290955E+04    2.5879976E-09    7.7586339E+04
   -2.12   *******    7.231E-03    7.1873791E+04    1.0738862E-09    1.0379092E-09    7.1873791E+04    2.7823177E-09    7.2142580E+04
   -2.11   *******    6.363E-03    6.7152748E+04    1.1635056E-09    1.1302262E-09    6.7152748E+04    3.0056657E-09    6.7397093E+04
   -2.10   *******    5.559E-03    6.3091735E+04    1.2653397E-09    1.2344340E-09    6.3091735E+04    3.2603285E-09    6.3313651E+04
   -2.09   *******    4.810E-03    5.9658844E+04    1.3804006E-09    1.3515634E-09    5.9658844E+04    3.5488559E-09    5.9860220E+04
   -2.08   *******    4.110E-03    5.6826420E+04    1.5098121E-09    1.4827549E-09    5.6826420E+04    3.8740772E-09    5.7009016E+04
   -2.07   *******    3.452E-03    5.4571089E+04    1.6548164E-09    1.6292656E-09    5.4571089E+04    4.2391168E-09    5.4736539E+04
   -2.06   *******    2.829E-03    5.2873769E+04    1.8167799E-09    1.7924748E-09    5.2873769E+04    4.6474098E-09    5.3023585E+04
   -2.05   *******    2.236E-03    5.1719656E+04    1.9971996E-09    1.9738904E-09    5.1719656E+04    5.1027160E-09    5.1855237E+04
   -2.04   *******    1.667E-03    5.1098210E+04    2.1977080E-09    2.1751537E-09    5.1098210E+04    5.6091328E-09    5.1220841E+04
   -2.03   *******    1.115E-03    5.1003114E+04    2.4200777E-09    2.3980442E-09    5.1003114E+04    6.1711053E-09    5.1113979E+04
   -2.02   *******    5.770E-04    5.1432235E+04    2.6662249E-09    2.6444832E-09    5.1432235E+04    6.7934340E-09    5.1532417E+04
   -2.01   *******    4.607E-05    5.2387572E+04    2.9382113E-09    2.9165354E-09    5.2387572E+04    7.4812774E-09    5.2478065E+04
   -2.00   *******   -4.824E-04    5.3875196E+04    3.2382445E-09    3.2164099E-09    5.3875196E+04    8.2401510E-09    5.3956907E+04
   -1.99   *******   -1.013E-03    5.5905184E+04    3.5686758E-09    3.5464571E-09    5.5905184E+04    9.0759188E-09    5.5978941E+04
   -1.98   *******   -1.552E-03    5.8491530E+04    3.9319953E-09    3.9091649E-09    5.8491530E+04    9.9947784E-09    5.8558087E+04
   -1.97   *******   -2.103E-03    6.1652053E+04    4.3308237E-09    4.3071498E-09    6.1652053E+04    1.1003236E-08    6.1712097E+04
   -1.96   *******   -2.671E-03    6.5408278E+04    4.7679008E-09    4.7431457E-09    6.5408278E+04    1.2108074E-08    6.5462433E+04
   -1.95   *******   -3.262E-03    6.9785296E+04    5.2460688E-09    5.2199872E-09    6.9785296E+04    1.3316302E-08    6.9834128E+04
   -1.94   *******   -3.880E-03    7.4811595E+04    5.7682515E-09    5.7405889E-09    7.4811595E+04    1.4635103E-08    7.4855619E+04
   -1.93   *******   -4.529E-03    8.0518860E+04    6.3374281E-09    6.3079192E-09    8.0518860E+04    1.6071755E-08    8.0558542E+04
   -1.92   *******   -5.216E-03    8.6941735E+04    6.9566016E-09    6.9249690E-09    8.6941735E+04    1.7633553E-08    8.6977498E+04
   -1.91   *******   -5.944E-03    9.4117547E+04    7.6287616E-09    7.5947144E-09    9.4117547E+04    1.9327704E-08    9.4149773E+04
   -1.90   *******   -6.720E-03    1.0208598E+05    8.3568419E-09    8.3200744E-09    1.0208598E+05    2.1161212E-08    1.0211502E+05
   -1.89   *******   -7.547E-03    1.1088873E+05    9.1436731E-09    9.1038640E-09    1.1088873E+05    2.3140757E-08    1.1091489E+05
   -1.88   *******   -8.431E-03    1.2056906E+05    9.9919307E-09    9.9487421E-09    1.2056906E+05    2.5272556E-08    1.2059262E+05
   -1.87   *******   -9.376E-03    1.3117140E+05    1.0904081E-08    1.0857158E-08    1.3117140E+05    2.7562221E-08    1.3119262E+05
   -1.86   *******   -1.039E-02    1.4274081E+05    1.1882323E-08    1.1831294E-08    1.4274081E+05    3.0014616E-08    1.4275993E+05
   -1.85   *******   -1.147E-02    1.5532253E+05    1.2928536E-08    1.2873012E-08    1.5532253E+05    3.2633716E-08    1.5533974E+05
   -1.84   *******   -1.263E-02    1.6896138E+05    1.4044222E-08    1.3983799E-08    1.6896138E+05    3.5422472E-08    1.6897688E+05
   -1.83   *******   -1.387E-02    1.8370126E+05    1.5230459E-08    1.5164718E-08    1.8370126E+05    3.8382699E-08    1.8371522E+05
   -1.82   *******   -1.520E-02    1.9958461E+05    1.6487860E-08    1.6416368E-08    1.9958461E+05    4.1514977E-08    1.9959717E+05
   -1.81   *******   -1.661E-02    2.1665184E+05    1.7816538E-08    1.7738853E-08    2.1665184E+05    4.4818592E-08    2.1666316E+05
   -1.80   *******   -1.812E-02    2.3494091E+05    1.9216087E-08    1.9131758E-08    2.3494091E+05    4.8291500E-08    2.3495110E+05
   -1.79   *******   -1.972E-02    2.5448681E+05    2.0685572E-08    2.0594149E-08    2.5448681E+05    5.1930333E-08    2.5449598E+05
   -1.78   *******   -2.143E-02    2.7532119E+05    2.2223538E-08    2.2124570E-08    2.7532119E+05    5.5730448E-08    2.7532945E+05
   -1.77   *******   -2.323E-02    2.9747204E+05    2.3828024E-08    2.3721070E-08    2.9747204E+05    5.9686007E-08    2.9747947E+05
   -1.76   *******   -2.515E-02    3.2096340E+05    2.5496599E-08    2.5381235E-08    3.2096340E+05    6.3790096E-08    3.2097010E+05
   -1.75   *******   -2.717E-02    3.4581522E+05    2.7226404E-08    2.7102230E-08    3.4581522E+05    6.8034875E-08    3.4582125E+05
   -1.74   *******   -2.930E-02    3.7204319E+05    2.9014207E-08    2.8880857E-08    3.7204319E+05    7.2411750E-08    3.7204862E+05
   -1.73   *******   -3.155E-02    3.9965877E+05    3.0856462E-08    3.0713614E-08    3.9965877E+05    7.6911553E-08    3.9966366E+05
   -1.72   *******   -3.391E-02    4.2866921E+05    3.2749377E-08    3.2596765E-08    4.2866921E+05    8.1524745E-08    4.2867361E+05
   -1.71   *******   -3.638E-02    4.5907766E+05    3.4688980E-08    3.4526410E-08    4.5907766E+05    8.6241603E-08    4.5908162E+05
   -1.70   *******   -3.897E-02    4.9088337E+05    3.6671193E-08    3.6498552E-08    4.9088337E+05    9.1052408E-08    4.9088694E+05
   -1.69   *******   -4.168E-02    5.2408187E+05    3.8691901E-08    3.8509174E-08    5.2408187E+05    9.5947635E-08    5.2408508E+05
   -1.68   *******   -4.450E-02    5.5866528E+05    4.0747020E-08    4.0554305E-08    5.5866528E+05    1.0091811E-07    5.5866818E+05
   -1.67   *******   -4.744E-02    5.9462258E+05    4.2832570E-08    4.2630090E-08    5.9462258E+05    1.0595519E-07    5.9462520E+05
   -1.66   *******   -5.050E-02    6.3193994E+05    4.4944733E-08    4.4732852E-08    6.3193994E+05    1.1105088E-07    6.3194229E+05
   -1.65   *******   -5.367E-02    6.7060101E+05    4.7079919E-08    4.6859156E-08    6.7060101E+05    1.1619799E-07    6.7060313E+05
   -1.64   *******   -5.696E-02    7.1058729E+05    4.9234818E-08    4.9005857E-08    7.1058729E+05    1.2139025E-07    7.1058921E+05
   -1.63   *******   -6.036E-02    7.5187842E+05    5.1406445E-08    5.1170145E-08    7.5187842E+05    1.2662237E-07    7.5188015E+05
   -1.62   *******   -6.388E-02    7.9445250E+05    5.3592165E-08    5.3349570E-08    7.9445250E+05    1.3189011E-07    7.9445407E+05
   -1.61   *******   -6.751E-02    8.3828636E+05    5.5789710E-08    5.5542051E-08    8.3828636E+05    1.3719027E-07    8.3828778E+05
   -1.60   *******   -7.126E-02    8.8335583E+05    5.7997163E-08    5.7745862E-08    8.8335583E+05    1.4252064E-07    8.8335711E+05
   -1.59   *******   -7.511E-02    9.2963595E+05    6.0212926E-08    5.9959593E-08    9.2963595E+05    1.4787984E-07    9.2963712E+05
   -1.58   *******   -7.908E-02    9.7710123E+05    6.2435654E-08    6.2182085E-08    9.7710123E+05    1.5326716E-07    9.7710229E+05
   -1.57   *******   -8.315E-02    1.0257257E+06    6.4664172E-08    6.4412339E-08    1.0257257E+06    1.5868226E-07    1.0257267E+06
   -1.56   *******   -8.734E-02    1.0754833E+06    6.6897362E-08    6.6649406E-08    1.0754833E+06    1.6412483E-07    1.0754842E+06
   -1.55   *******   -9.163E-02    1.1263477E+06    6.9134042E-08    6.8892259E-08    1.1263477E+06    1.6959423E-07    1.1263485E+06
   -1.54   *******   -9.602E-02    1.1782925E+06    7.1372830E-08    7.1139658E-08    1.1782925E+06    1.7508903E-07    1.1782932E+06
   -1.53   *******   -1.005E-01    1.2312914E+06    7.3612013E-08    7.3390017E-08    1.2312914E+06    1.8060664E-07    1.2312920E+06
   -1.52   *******   -1.051E-01    1.2853181E+06    7.5849425E-08    7.5641281E-08    1.2853181E+06    1.8614288E-07    1.2853188E+06
   -1.51   *******   -1.098E-01    1.3403467E+06    7.8082349E-08    7.7890827E-08    1.3403467E+06    1.9169172E-07    1.3403473E+06
   -1.50   *******   -1.146E-01    1.3963511E+06    8.0307443E-08    8.0135391E-08    1.3963511E+06    1.9724496E-07    1.3963517E+06
   -1.49   *******   -1.195E-01    1.4533056E+06    8.2520706E-08    8.2371033E-08    1.4533056E+06    2.0279218E-07    1.4533062E+06
   -1.48   *******   -1.246E-01    1.5111847E+06    8.4717490E-08    8.4593152E-08    1.5111847E+06    2.0832071E-07    1.5111852E+06
   -1.47   *******   -1.297E-01    1.5699630E+06    8.6892548E-08    8.6796531E-08    1.5699630E+06    2.1381581E-07    1.5699635E+06
   -1.46   *******   -1.349E-01    1.6296155E+06    8.9040137E-08    8.8975440E-08    1.6296155E+06    2.1926094E-07    1.6296160E+06
   -1.45   *******   -1.402E-01    1.6901173E+06    9.1154149E-08    9.1123771E-08    1.6901173E+06    2.2463819E-07    1.6901178E+06
   -1.44   *******   -1.456E-01    1.7514438E+06    9.3228284E-08    9.3235204E-08    1.7514438E+06    2.2992880E-07    1.7514443E+06
   -1.43   *******   -1.510E-01    1.8135707E+06    9.5256240E-08    9.5303406E-08    1.8135707E+06    2.3511378E-07    1.8135711E+06
   -1.42   *******   -1.566E-01    1.8764737E+06    9.7231922E-08    9.7322229E-08    1.8764737E+06    2.4017454E-07    1.8764742E+06
   -1.41   *******   -1.623E-01    1.9401291E+06    9.9149643E-08    9.9285918E-08    1.9401291E+06    2.4509352E-07    1.9401296E+06
   -1.40   *******   -1.681E-01    2.0045131E+06    1.0100432E-07    1.0118930E-07    2.0045131E+06    2.4985481E-07    2.0045136E+06
   -1.39   *******   -1.739E-01    2.0696024E+06    1.0279163E-07    1.0302796E-07    2.0696024E+06    2.5444467E-07    2.0696029E+06
   -1.38   *******   -1.799E-01    2.1353738E+06    1.0450816E-07    1.0479836E-07    2.1353738E+06    2.5885195E-07    2.1353744E+06
   -1.37   *******   -1.859E-01    2.2018048E+06    1.0615151E-07    1.0649794E-07    2.2018048E+06    2.6306835E-07    2.2018054E+06
   -1.36   *******   -1.921E-01    2.2688728E+06    1.0772032E-07    1.0812518E-07    2.2688728E+06    2.6708863E-07    2.2688735E+06
   -1.35   *******   -1.983E-01    2.3365560E+06    1.0921428E-07    1.0967961E-07    2.3365560E+06    2.7091061E-07    2.3365567E+06
   -1.34   *******   -2.046E-01    2.4048331E+06    1.1063415E-07    1.1116177E-07    2.4048331E+06    2.7453501E-07    2.4048339E+06
   -1.33   *******   -2.110E-01    2.4736831E+06    1.1198164E-07    1.1257315E-07    2.4736831E+06    2.7796529E-07    2.4736839E+06
   -1.32   *******   -2.175E-01    2.5430859E+06    1.1325935E-07    1.1391610E-07    2.5430859E+06    2.8120731E-07    2.5430868E+06
   -1.31   *******   -2.240E-01    2.6130217E+06    1.1447064E-07    1.1519375E-07    2.6130217E+06    2.8426895E-07    2.6130227E+06
   -1.30   *******   -2.307E-01    2.6834718E+06    1.1561953E-07    1.1640983E-07    2.6834718E+06    2.8715972E-07    2.6834729E+06
   -1.29   *******   -2.375E-01    2.7544178E+06    1.1671060E-07    1.1756864E-07    2.7544178E+06    2.8989035E-07    2.7544190E+06
   -1.28   *******   -2.443E-01    2.8258420E+06    1.1774883E-07    1.1867485E-07    2.8258420E+06    2.9247241E-07    2.8258434E+06
   -1.27   *******   -2.512E-01    2.8977276E+06    1.1873954E-07    1.1973347E-07    2.8977276E+06    2.9491807E-07    2.8977291E+06
   -1.26   *******   -2.582E-01    2.9700582E+06    1.1968829E-07    1.2074977E-07    2.9700582E+06    2.9723979E-07    2.9700598E+06
   -1.25   *******   -2.653E-01    3.0428178E+06    1.2060087E-07    1.2172919E-07    3.0428178E+06    2.9945026E-07    3.0428196E+06
   -1.24   *******   -2.725E-01    3.1159913E+06    1.2148318E-07    1.2267734E-07    3.1159913E+06    3.0156235E-07    3.1159933E+06
   -1.23   *******   -2.798E-01    3.1895637E+06    1.2234130E-07    1.2359995E-07    3.1895637E+06    3.0358918E-07    3.1895659E+06
   -1.22   *******   -2.872E-01    3.2635205E+06    1.2318141E-07    1.2450292E-07    3.2635205E+06    3.0554426E-07    3.2635229E+06
   -1.21   *******   -2.946E-01    3.3378475E+06    1.2400983E-07    1.2539226E-07    3.3378475E+06    3.0744173E-07    3.3378502E+06
   -1.20   *******   -3.022E-01    3.4125306E+06    1.2483299E-07    1.2627413E-07    3.4125306E+06    3.0929653E-07    3.4125336E+06
   -1.19   *******   -3.098E-01    3.4875560E+06    1.2565745E-07    1.2715482E-07    3.4875560E+06    3.1112463E-07    3.4875594E+06
   -1.18   *******   -3.175E-01    3.5629100E+06    1.2648982E-07    1.2804072E-07    3.5629100E+06    3.1294316E-07    3.5629137E+06
   -1.17   *******   -3.253E-01    3.6385787E+06    1.2733675E-07    1.2893823E-07    3.6385787E+06    3.1477050E-07    3.6385828E+06
   -1.16   *******   -3.332E-01    3.7145483E+06    1.2820478E-07    1.2985375E-07    3.7145483E+06    3.1662612E-07    3.7145529E+06
   -1.15   *******   -3.412E-01    3.7908047E+06    1.2910030E-07    1.3079349E-07    3.7908047E+06    3.1853048E-07    3.7908098E+06
   -1.14   *******   -3.492E-01    3.8673334E+06    1.3002935E-07    1.3176338E-07    3.8673334E+06    3.2050457E-07    3.8673391E+06
   -1.13   *******   -3.574E-01    3.9441198E+06    1.3099745E-07    1.3276886E-07    3.9441198E+06    3.2256946E-07    3.9441260E+06
   -1.12   *******   -3.656E-01    4.0211484E+06    1.3200947E-07    1.3381473E-07    4.0211484E+06    3.2474569E-07    4.0211554E+06
   -1.11   *******   -3.740E-01    4.0984033E+06    1.3306941E-07    1.3490498E-07    4.0984033E+06    3.2705257E-07    4.0984110E+06
   -1.10   *******   -3.824E-01    4.1758678E+06    1.3418023E-07    1.3604258E-07    4.1758678E+06    3.2950746E-07    4.1758764E+06
   -1.09   *******   -3.909E-01    4.2535243E+06    1.3534372E-07    1.3722937E-07    4.2535243E+06    3.3212509E-07    4.2535338E+06
   -1.08   *******   -3.995E-01    4.3313543E+06    1.3656041E-07    1.3846593E-07    4.3313543E+06    3.3491696E-07    4.3313649E+06
   -1.07   *******   -4.082E-01    4.4093385E+06    1.3782949E-07    1.3975154E-07    4.4093385E+06    3.3789078E-07    4.4093503E+06
   -1.06   *******   -4.170E-01    4.4874565E+06    1.3914878E-07    1.4108416E-07    4.4874565E+06    3.4105021E-07    4.4874696E+06
   -1.05   *******   -4.259E-01    4.5656871E+06    1.4051487E-07    1.4246046E-07    4.5656871E+06    3.4439467E-07    4.5657016E+06
   -1.04   *******   -4.349E-01    4.6440080E+06    1.4192313E-07    1.4387597E-07    4.6440080E+06    3.4791940E-07    4.6440242E+06
   -1.03   *******   -4.440E-01    4.7223965E+06    1.4336795E-07    1.4532520E-07    4.7223965E+06    3.5161574E-07    4.7224144E+06
   -1.02   *******   -4.531E-01    4.8008289E+06    1.4484289E-07    1.4680186E-07    4.8008289E+06    3.5547152E-07    4.8008489E+06
   -1.01   *******   -4.624E-01    4.8792812E+06    1.4634093E-07    1.4829905E-07    4.8792812E+06    3.5947163E-07    4.8793034E+06
   -1.00   *******   -4.718E-01    4.9577289E+06    1.4785466E-07    1.4980951E-07    4.9577289E+06    3.6359869E-07    4.9577536E+06
   -0.99   *******   -4.813E-01    5.0361472E+06    1.4937657E-07    1.5132584E-07    5.0361472E+06    3.6783372E-07    5.0361746E+06
   -0.98   *******   -4.908E-01    5.1145108E+06    1.5089917E-07    1.5284071E-07    5.1145108E+06    3.7215677E-07    5.1145412E+06
   -0.97   *******   -5.005E-01    5.1927942E+06    1.5241519E-07    1.5434697E-07    5.1927942E+06    3.7654755E-07    5.1928280E+06
   -0.96   *******   -5.103E-01    5.2709715E+06    1.5391766E-07    1.5583781E-07    5.2709715E+06    3.8098588E-07    5.2710091E+06
   -0.95   *******   -5.202E-01    5.3490162E+06    1.5539994E-07    1.5730677E-07    5.3490162E+06    3.8545196E-07    5.3490579E+06
   -0.94   *******   -5.302E-01    5.4269009E+06    1.5685574E-07    1.5874773E-07    5.4269009E+06    3.8992656E-07    5.4269473E+06
   -0.93   *******   -5.403E-01    5.5045971E+06    1.5827898E-07    1.6015488E-07    5.5045971E+06    3.9439095E-07    5.5046487E+06
   -0.92   *******   -5.505E-01    5.5820751E+06    1.5966378E-07    1.6152255E-07    5.5820751E+06    3.9882680E-07    5.5821324E+06
   -0.91   *******   -5.608E-01    5.6593032E+06    1.6100421E-07    1.6284516E-07    5.6593032E+06    4.0321587E-07    5.6593669E+06
   -0.90   *******   -5.712E-01    5.7362479E+06    1.6229426E-07    1.6411701E-07    5.7362479E+06    4.0753977E-07    5.7363185E+06
   -0.89   *******   -5.818E-01    5.8128729E+06    1.6352767E-07    1.6533223E-07    5.8128729E+06    4.1177964E-07    5.8129514E+06
   -0.88   *******   -5.924E-01    5.8891395E+06    1.6469787E-07    1.6648465E-07    5.8891395E+06    4.1591593E-07    5.8892267E+06
   -0.87   *******   -6.032E-01    5.9650060E+06    1.6579793E-07    1.6756779E-07    5.9650060E+06    4.1992829E-07    5.9651029E+06
   -0.86   *******   -6.141E-01    6.0404274E+06    1.6682062E-07    1.6857487E-07    6.0404274E+06    4.2379557E-07    6.0405350E+06
   -0.85   *******   -6.251E-01    6.1153557E+06    1.6775848E-07    1.6949888E-07    6.1153557E+06    4.2749600E-07    6.1154752E+06
   -0.84   *******   -6.362E-01    6.1897393E+06    1.6860395E-07    1.7033273E-07    6.1897393E+06    4.3100749E-07    6.1898720E+06
   -0.83   *******   -6.475E-01    6.2635234E+06    1.6934958E-07    1.7106942E-07    6.2635234E+06    4.3430808E-07    6.2636708E+06
   -0.82   *******   -6.589E-01    6.3366499E+06    1.6998827E-07    1.7170225E-07    6.3366499E+06    4.3737644E-07    6.3368136E+06
   -0.81   *******   -6.704E-01    6.4090576E+06    1.7051347E-07    1.7222502E-07    6.4090576E+06    4.4019249E-07    6.4092394E+06
   -0.80   *******   -6.820E-01    6.4806825E+06    1.7091944E-07    1.7263231E-07    6.4806825E+06    4.4273794E-07    6.4808843E+06
   -0.79   *******   -6.937E-01    6.5514579E+06    1.7120149E-07    1.7291965E-07    6.5514579E+06    4.4499690E-07    6.5516818E+06
   -0.78   *******   -7.056E-01    6.6213147E+06    1.7135610E-07    1.7308366E-07    6.6213147E+06    4.4695628E-07    6.6215633E+06
   -0.77   *******   -7.176E-01    6.6901823E+06    1.7138111E-07    1.7312225E-07    6.6901823E+06    4.4860620E-07    6.6904582E+06
   -0.76   *******   -7.297E-01    6.7579886E+06    1.7127579E-07    1.7303463E-07    6.7579886E+06    4.4994020E-07    6.7582948E+06
   -0.75   *******   -7.420E-01    6.8246605E+06    1.7104081E-07    1.7282135E-07    6.8246605E+06    4.5095529E-07    6.8250002E+06
   -0.74   *******   -7.543E-01    6.8901247E+06    1.7067828E-07    1.7248425E-07    6.8901247E+06    4.5165193E-07    6.8905016E+06
   -0.73   *******   -7.668E-01    6.9543079E+06    1.7019157E-07    1.7202638E-07    6.9543079E+06    4.5203382E-07    6.9547259E+06
   -0.72   *******   -7.794E-01    7.0171370E+06    1.6958522E-07    1.7145187E-07    7.0171370E+06    4.5210763E-07    7.0176005E+06
   -0.71   *******   -7.922E-01    7.0785398E+06    1.6886475E-07    1.7076577E-07    7.0785398E+06    4.5188262E-07    7.0790537E+06
   -0.70   *******   -8.050E-01    7.1384453E+06    1.6803645E-07    1.6997387E-07    7.1384453E+06    4.5137024E-07    7.1390149E+06
   -0.69   *******   -8.180E-01    7.1967833E+06    1.6710723E-07    1.6908251E-07    7.1967833E+06    4.5058374E-07    7.1974145E+06
   -0.68   *******   -8.311E-01    7.2534854E+06    1.6608439E-07    1.6809845E-07    7.2534854E+06    4.4953780E-07    7.2541846E+06
   -0.67   *******   -8.443E-01    7.3084846E+06    1.6497549E-07    1.6702873E-07    7.3084846E+06    4.4824818E-07    7.3092588E+06
   -0.66   *******   -8.575E-01    7.3617153E+06    1.6378818E-07    1.6588050E-07    7.3617153E+06    4.4673146E-07    7.3625723E+06
   -0.65   *******   -8.709E-01    7.4131141E+06    1.6253015E-07    1.6466099E-07    7.4131141E+06    4.4500485E-07    7.4140623E+06
   -0.64   *******   -8.844E-01    7.4626191E+06    1.6120900E-07    1.6337743E-07    7.4626191E+06    4.4308603E-07    7.4636677E+06
   -0.63   *******   -8.980E-01    7.5101707E+06    1.5983228E-07    1.6203702E-07    7.5101707E+06    4.4099309E-07    7.5113298E+06
   -0.62   *******   -9.117E-01    7.5557115E+06    1.5840739E-07    1.6064690E-07    7.5557115E+06    4.3874444E-07    7.5569919E+06
   -0.61   *******   -9.254E-01    7.5991864E+06    1.5694164E-07    1.5921419E-07    7.5991864E+06    4.3635875E-07    7.6006000E+06
   -0.60   *******   -9.392E-01    7.6405432E+06    1.5544222E-07    1.5774592E-07    7.6405432E+06    4.3385492E-07    7.6421028E+06
   -0.59   *******   -9.531E-01    7.6797324E+06    1.5391622E-07    1.5624909E-07    7.6797324E+06    4.3125200E-07    7.6814517E+06
   -0.58   *******   -9.670E-01    7.7167080E+06    1.5237061E-07    1.5473062E-07    7.7167080E+06    4.2856907E-07    7.7186019E+06
   -0.57   *******   -9.810E-01    7.7514277E+06    1.5081223E-07    1.5319733E-07    7.7514277E+06    4.2582515E-07    7.7535119E+06
   -0.56   *******   -9.951E-01    7.7838532E+06    1.4924781E-07    1.5165595E-07    7.7838532E+06    4.2303906E-07    7.7861446E+06
   -0.55   *******   -1.009E+00    7.8139512E+06    1.4768387E-07    1.5011305E-07    7.8139512E+06    4.2022932E-07    7.8164675E+06
   -0.54   *******   -1.023E+00    7.8416937E+06    1.4612679E-07    1.4857506E-07    7.8416937E+06    4.1741402E-07    7.8444538E+06
   -0.53   *******   -1.038E+00    7.8670587E+06    1.4458273E-07    1.4704823E-07    7.8670587E+06    4.1461075E-07    7.8700822E+06
   -0.52   *******   -1.052E+00    7.8900312E+06    1.4305765E-07    1.4553860E-07    7.8900312E+06    4.1183654E-07    7.8933385E+06
   -0.51   *******   -1.066E+00    7.9106036E+06    1.4155729E-07    1.4405206E-07    7.9106036E+06    4.0910788E-07    7.9142159E+06
   -0.50   *******   -1.080E+00    7.9287767E+06    1.4008722E-07    1.4259432E-07    7.9287767E+06    4.0644063E-07    7.9327154E+06
   -0.49   *******   -1.094E+00    7.9445597E+06    1.3865278E-07    1.4117089E-07    7.9445597E+06    4.0385009E-07    7.9488466E+06
   -0.48   *******   -1.109E+00    7.9579710E+06    1.3725913E-07    1.3978713E-07    7.9579710E+06    4.0135097E-07    7.9626276E+06
   -0.47   *******   -1.123E+00    7.9690379E+06    1.3591125E-07    1.3844825E-07    7.9690379E+06    3.9895730E-07    7.9740857E+06
   -0.46   *******   -1.137E+00    7.9777971E+06    1.3461390E-07    1.3715924E-07    7.9777971E+06    3.9668239E-07    7.9832565E+06
   -0.45   *******   -1.151E+00    7.9842939E+06    1.3337159E-07    1.3592486E-07    7.9842939E+06    3.9453863E-07    7.9901843E+06
   -0.44   *******   -1.166E+00    7.9885820E+06    1.3218851E-07    1.3474956E-07    7.9885820E+06    3.9253730E-07    7.9949214E+06
   -0.43   *******   -1.180E+00    7.9907234E+06    1.3106847E-07    1.3363744E-07    7.9907234E+06    3.9068829E-07    7.9975273E+06
   -0.42   *******   -1.194E+00    7.9907870E+06    1.3001481E-07    1.3259208E-07    7.9907870E+06    3.8899983E-07    7.9980686E+06
   -0.41   *******   -1.208E+00    7.9888487E+06    1.2903025E-07    1.3161646E-07    7.9888487E+06    3.8747814E-07    7.9966181E+06
   -0.40   *******   -1.222E+00    7.9849906E+06    1.2811679E-07    1.3071284E-07    7.9849906E+06    3.8612710E-07    7.9932543E+06
   -0.39   *******   -1.236E+00    7.9793003E+06    1.2727562E-07    1.2988264E-07    7.9793003E+06    3.8494804E-07    7.9880609E+06
   -0.38   *******   -1.250E+00    7.9718703E+06    1.2650698E-07    1.2912634E-07    7.9718703E+06    3.8393943E-07    7.9811261E+06
   -0.37   *******   -1.264E+00    7.9627974E+06    1.2581014E-07    1.2844338E-07    7.9627974E+06    3.8309678E-07    7.9725419E+06
   -0.36   *******   -1.278E+00    7.9521819E+06    1.2518326E-07    1.2783213E-07    7.9521819E+06    3.8241255E-07    7.9624039E+06
   -0.35   *******   -1.292E+00    7.9401270E+06    1.2462346E-07    1.2728987E-07    7.9401270E+06    3.8187623E-07    7.9508105E+06
   -0.34   *******   -1.306E+00    7.9267379E+06    1.2412678E-07    1.2681279E-07    7.9267379E+06    3.8147445E-07    7.9378619E+06
   -0.33   *******   -1.320E+00    7.9121205E+06    1.2368828E-07    1.2639605E-07    7.9121205E+06    3.8119120E-07    7.9236595E+06
   -0.32   *******   -1.334E+00    7.8963810E+06    1.2330207E-07    1.2603388E-07    7.8963810E+06    3.8100824E-07    7.9083052E+06
   -0.31   *******   -1.348E+00    7.8796247E+06    1.2296150E-07    1.2571969E-07    7.8796247E+06    3.8090545E-07    7.8919004E+06
   -0.30   *******   -1.362E+00    7.8619551E+06    1.2265926E-07    1.2544623E-07    7.8619551E+06    3.8086136E-07    7.8745453E+06
   -0.29   *******   -1.376E+00    7.8434731E+06    1.2238758E-07    1.2520574E-07    7.8434731E+06    3.8085364E-07    7.8563383E+06
   -0.28   *******   -1.390E+00    7.8242771E+06    1.2213844E-07    1.2499016E-07    7.8242771E+06    3.8085974E-07    7.8373756E+06
   -0.27   *******   -1.404E+00    7.8044621E+06    1.2190370E-07    1.2479134E-07    7.8044621E+06    3.8085740E-07    7.8177512E+06
   -0.26   *******   -1.418E+00    7.7841200E+06    1.2167537E-07    1.2460119E-07    7.7841200E+06    3.8082533E-07    7.7975566E+06
   -0.25   *******   -1.432E+00    7.7633399E+06    1.2144580E-07    1.2441194E-07    7.7633399E+06    3.8074370E-07    7.7768809E+06
   -0.24   *******   -1.446E+00    7.7422082E+06    1.2120783E-07    1.2421628E-07    7.7422082E+06    3.8059478E-07    7.7558116E+06
   -0.23   *******   -1.460E+00    7.7208092E+06    1.2095502E-07    1.2400759E-07    7.7208092E+06    3.8036337E-07    7.7344343E+06
   -0.22   *******   -1.475E+00    7.6992255E+06    1.2068182E-07    1.2378008E-07    7.6992255E+06    3.8003737E-07    7.7128337E+06
   -0.21   *******   -1.489E+00    7.6775383E+06    1.2038369E-07    1.2352894E-07    7.6775383E+06    3.7960809E-07    7.6910932E+06
   -0.20   *******   -1.503E+00    7.6558275E+06    1.2005729E-07    1.2325054E-07    7.6558275E+06    3.7907072E-07    7.6692955E+06
   -0.19   *******   -1.518E+00    7.6341718E+06    1.1970058E-07    1.2294249E-07    7.6341718E+06    3.7842453E-07    7.6475221E+06
   -0.18   *******   -1.532E+00    7.6126487E+06    1.1931296E-07    1.2260383E-07    7.6126487E+06    3.7767321E-07    7.6258537E+06
   -0.17   *******   -1.547E+00    7.5913344E+06    1.1889536E-07    1.2223510E-07    7.5913344E+06    3.7682503E-07    7.6043693E+06
   -0.16   *******   -1.562E+00    7.5703034E+06    1.1845038E-07    1.2183844E-07    7.5703034E+06    3.7589298E-07    7.5831465E+06
   -0.15   *******   -1.577E+00    7.5496287E+06    1.1798232E-07    1.2141772E-07    7.5496287E+06    3.7489490E-07    7.5622612E+06
   -0.14   *******   -1.592E+00    7.5293821E+06    1.1749731E-07    1.2097859E-07    7.5293821E+06    3.7385353E-07    7.5417880E+06
   -0.13   *******   -1.607E+00    7.5096342E+06    1.1700334E-07    1.2052853E-07    7.5096342E+06    3.7279654E-07    7.5218002E+06
   -0.12   *******   -1.623E+00    7.4904554E+06    1.1651028E-07    1.2007694E-07    7.4904554E+06    3.7175649E-07    7.5023705E+06
   -0.11   *******   -1.638E+00    7.4719168E+06    1.1602993E-07    1.1963511E-07    7.4719168E+06    3.7077076E-07    7.4835723E+06
   -0.10   *******   -1.654E+00    7.4540907E+06    1.1557597E-07    1.1921622E-07    7.4540907E+06    3.6988133E-07    7.4654800E+06
   -0.09   *******   -1.670E+00    7.4370516E+06    1.1516388E-07    1.1883529E-07    7.4370516E+06    3.6913457E-07    7.4481698E+06
   -0.08   *******   -1.686E+00    7.4208769E+06    1.1481082E-07    1.1850905E-07    7.4208769E+06    3.6858084E-07    7.4317208E+06
   -0.07   *******   -1.703E+00    7.4056466E+06    1.1453545E-07    1.1825576E-07    7.4056466E+06    3.6827392E-07    7.4162145E+06
   -0.06   *******   -1.719E+00    7.3914434E+06    1.1435769E-07    1.1809502E-07    7.3914434E+06    3.6827041E-07    7.4017347E+06
   -0.05   *******   -1.736E+00    7.3783509E+06    1.1429839E-07    1.1804741E-07    7.3783509E+06    3.6862883E-07    7.3883664E+06
   -0.04   *******   -1.753E+00    7.3664528E+06    1.1437897E-07    1.1813418E-07    7.3664528E+06    3.6940867E-07    7.3761941E+06
   -0.03   *******   -1.770E+00    7.3558299E+06    1.1462098E-07    1.1837676E-07    7.3558299E+06    3.7066918E-07    7.3652996E+06
   -0.02   *******   -1.788E+00    7.3465579E+06    1.1504561E-07    1.1879635E-07    7.3465579E+06    3.7246806E-07    7.3557593E+06
   -0.01   *******   -1.805E+00    7.3387041E+06    1.1567312E-07    1.1941327E-07    7.3387041E+06    3.7486002E-07    7.3476412E+06
    0.00   *******   -1.823E+00    7.3323242E+06    1.1652228E-07    1.2024646E-07    7.3323242E+06    3.7789513E-07    7.3410017E+06
    0.01   *******   -1.841E+00    7.3274592E+06    1.1760971E-07    1.2131279E-07    7.3274592E+06    3.8161719E-07    7.3358824E+06
    0.02   *******   -1.859E+00    7.3241323E+06    1.1894927E-07    1.2262641E-07    7.3241323E+06    3.8606190E-07    7.3323066E+06
    0.03   *******   -1.878E+00    7.3223449E+06    1.2055136E-07    1.2419812E-07    7.3223449E+06    3.9125508E-07    7.3302766E+06
    0.04   *******   -1.896E+00    7.3220739E+06    1.2242228E-07    1.2603463E-07    7.3220739E+06    3.9721088E-07    7.3297695E+06
    0.05   *******   -1.915E+00    7.3232683E+06    1.2456361E-07    1.2813798E-07    7.3232683E+06    4.0392994E-07    7.3307344E+06
    0.06   *******   -1.934E+00    7.3258448E+06    1.2697161E-07    1.3050490E-07    7.3258448E+06    4.1139781E-07    7.3330887E+06
    0.07   *******   -1.953E+00    7.3296844E+06    1.2963669E-07    1.3312630E-07    7.3296844E+06    4.1958348E-07    7.3367133E+06
    0.08   *******   -1.972E+00    7.3346276E+06    1.3254302E-07    1.3598680E-07    7.3346276E+06    4.2843812E-07    7.3414489E+06
    0.09   *******   -1.992E+00    7.3404692E+06    1.3566823E-07    1.3906451E-07    7.3404692E+06    4.3789429E-07    7.3470905E+06
    0.10   *******   -2.012E+00    7.3469538E+06    1.3898327E-07    1.4233080E-07    7.3469538E+06    4.4786551E-07    7.3533827E+06
    0.11   *******   -2.032E+00    7.3537698E+06    1.4245253E-07    1.4575045E-07    7.3537698E+06    4.5824643E-07    7.3600139E+06
    0.12   *******   -2.052E+00    7.3605449E+06    1.4603404E-07    1.4928186E-07    7.3605449E+06    4.6891353E-07    7.3666116E+06
    0.13   *******   -2.072E+00    7.3668415E+06    1.4968008E-07    1.5287759E-07    7.3668415E+06    4.7972655E-07    7.3727381E+06
    0.14   *******   -2.092E+00    7.3721532E+06    1.5333787E-07    1.5648511E-07    7.3721532E+06    4.9053060E-07    7.3778869E+06
    0.15   *******   -2.113E+00    7.3759037E+06    1.5695059E-07    1.6004779E-07    7.3759037E+06    5.0115895E-07    7.3814813E+06
    0.16   *******   -2.134E+00    7.3774461E+06    1.6045855E-07    1.6350606E-07    7.3774461E+06    5.1143636E-07    7.3828742E+06
    0.17   *******   -2.155E+00    7.3760661E+06    1.6380057E-07    1.6679883E-07    7.3760661E+06    5.2118302E-07    7.3813507E+06
    0.18   *******   -2.176E+00    7.3709866E+06    1.6691543E-07    1.6986488E-07    7.3709866E+06    5.3021874E-07    7.3761335E+06
    0.19   *******   -2.197E+00    7.3613754E+06    1.6974344E-07    1.7264448E-07    7.3613754E+06    5.3836742E-07    7.3663897E+06
    0.20   *******   -2.219E+00    7.3463554E+06    1.7222786E-07    1.7508080E-07    7.3463554E+06    5.4546137E-07    7.3512419E+06
# T(K) = 1200.00   Npoints =     441   V(cm^3) =  3.848E-22
   -4.20   *******    9.344E+00    7.4004990E+05    4.7887496E-08    4.8002274E-08    7.4004990E+05    1.1966022E-07    7.4035160E+05
   -4.19   *******    9.290E+00    7.6935594E+05    5.0431705E-08    5.0551255E-08    7.6935594E+05    1.2608566E-07    7.6966236E+05
   -4.18   *******    9.234E+00    7.9876453E+05    5.2999865E-08    5.3124020E-08    7.9876453E+05    1.3258062E-07    7.9907505E+05
   -4.17   *******    9.175E+00    8.2823248E+05    5.5577827E-08    5.5706370E-08    8.2823248E+05    1.3911103E-07    8.2854647E+05
   -4.16   *******    9.113E+00    8.5772293E+05    5.8150396E-08    5.8283058E-08    8.5772293E+05    1.4564027E-07    8.5803977E+05
   -4.15   *******    9.048E+00    8.8720617E+05    6.0701572E-08    6.0838031E-08    8.8720617E+05    1.5212978E-07    8.8752521E+05
   -4.14   *******    8.981E+00    9.1666019E+05    6.3214835E-08    6.3354713E-08    9.1666019E+05    1.5853968E-07    9.1698080E+05
   -4.13   *******    8.910E+00    9.4607105E+05    6.5673471E-08    6.5816332E-08    9.4607105E+05    1.6482962E-07    9.4639257E+05
   -4.12   *******    8.837E+00    9.7543285E+05    6.8060924E-08    6.8206278E-08    9.7543285E+05    1.7095952E-07    9.7575462E+05
   -4.11   *******    8.761E+00    1.0047475E+06    7.0361178E-08    7.0508476E-08    1.0047475E+06    1.7689051E-07    1.0050688E+06
   -4.10   *******    8.682E+00    1.0340238E+06    7.2559119E-08    7.2707759E-08    1.0340238E+06    1.8258577E-07    1.0343441E+06
   -4.09   *******    8.600E+00    1.0632768E+06    7.4640902E-08    7.4790224E-08    1.0632768E+06    1.8801138E-07    1.0635954E+06
   -4.08   *******    8.516E+00    1.0925263E+06    7.6594264E-08    7.6743556E-08    1.0925263E+06    1.9313701E-07    1.0928424E+06
   -4.07   *******    8.429E+00    1.1217948E+06    7.8408791E-08    7.8557288E-08    1.1217948E+06    1.9793659E-07    1.1221079E+06
   -4.06   *******    8.340E+00    1.1511063E+06    8.0076119E-08    8.0223006E-08    1.1511063E+06    2.0238872E-07    1.1514156E+06
   -4.05   *******    8.248E+00    1.1804838E+06    8.1590045E-08    8.1734458E-08    1.1804838E+06    2.0647690E-07    1.1807887E+06
   -4.04   *******    8.154E+00    1.2099473E+06    8.2946553E-08    8.3087582E-08    1.2099473E+06    2.1018963E-07    1.2102471E+06
   -4.03   *******    8.059E+00    1.2395118E+06    8.4143750E-08    8.4280443E-08    1.2395118E+06    2.1352021E-07    1.2398059E+06
   -4.02   *******    7.961E+00    1.2691857E+06    8.5181713E-08    8.5313074E-08    1.2691857E+06    2.1646634E-07    1.2694734E+06
   -4.01   *******    7.861E+00    1.2989687E+06    8.6062254E-08    8.6187254E-08    1.2989687E+06    2.1902961E-07    1.2992494E+06
   -4.00   *******    7.760E+00    1.3288512E+06    8.6788637E-08    8.6906209E-08    1.3288512E+06    2.2121483E-07    1.3291244E+06
   -3.99   *******    7.658E+00    1.3588132E+06    8.7365233E-08    8.7474285E-08    1.3588132E+06    2.2302916E-07    1.3590783E+06
   -3.98   *******    7.554E+00    1.3888244E+06    8.7797174E-08    8.7896590E-08    1.3888244E+06    2.2448139E-07    1.3890811E+06
   -3.97   *******    7.449E+00    1.4188447E+06    8.8089999E-08    8.8178645E-08    1.4188447E+06    2.2558108E-07    1.4190924E+06
   -3.96   *******    7.343E+00    1.4488248E+06    8.8249329E-08    8.8326062E-08    1.4488248E+06    2.2633781E-07    1.4490632E+06
   -3.95   *******    7.237E+00    1.4787081E+06    8.8280590E-08    8.8344264E-08    1.4787081E+06    2.2676061E-07    1.4789369E+06
   -3.94   *******    7.130E+00    1.5084326E+06    8.8188789E-08    8.8238266E-08    1.5084326E+06    2.2685743E-07    1.5086515E+06
   -3.93   *******    7.023E+00    1.5379330E+06    8.7978372E-08    8.8012527E-08    1.5379330E+06    2.2663489E-07    1.5381419E+06
   -3.92   *******    6.916E+00    1.5671437E+06    8.7653144E-08    8.7670881E-08    1.5671437E+06    2.2609813E-07    1.5673425E+06
   -3.91   *******    6.809E+00    1.5960014E+06    8.7216276E-08    8.7216532E-08    1.5960014E+06    2.2525089E-07    1.5961900E+06
   -3.90   *******    6.702E+00    1.6244476E+06    8.6670370E-08    8.6652128E-08    1.6244476E+06    2.2409575E-07    1.6246262E+06
   -3.89   *******    6.596E+00    1.6524318E+06    8.6017588E-08    8.5979884E-08    1.6524318E+06    2.2263448E-07    1.6526003E+06
   -3.88   *******    6.490E+00    1.6799131E+06    8.5259820E-08    8.5201754E-08    1.6799131E+06    2.2086854E-07    1.6800718E+06
   -3.87   *******    6.385E+00    1.7068629E+06    8.4398883E-08    8.4319625E-08    1.7068629E+06    2.1879958E-07    1.7070120E+06
   -3.86   *******    6.282E+00    1.7332661E+06    8.3436733E-08    8.3335529E-08    1.7332661E+06    2.1643005E-07    1.7334058E+06
   -3.85   *******    6.179E+00    1.7591222E+06    8.2375674E-08    8.2251851E-08    1.7591222E+06    2.1376377E-07    1.7592529E+06
   -3.84   *******    6.078E+00    1.7844460E+06    8.1218547E-08    8.1071517E-08    1.7844460E+06    2.1080636E-07    1.7845680E+06
   -3.83   *******    5.978E+00    1.8092674E+06    7.9968899E-08    7.9798161E-08    1.8092674E+06    2.0756577E-07    1.8093810E+06
   -3.82   *******    5.880E+00    1.8336309E+06    7.8631102E-08    7.8436240E-08    1.8336309E+06    2.0405257E-07    1.8337365E+06
   -3.81   *******    5.784E+00    1.8575949E+06    7.7210443E-08    7.6991128E-08    1.8575949E+06    2.0028015E-07    1.8576929E+06
   -3.80   *******    5.690E+00    1.8812297E+06    7.5713156E-08    7.5469141E-08    1.8812297E+06    1.9626488E-07    1.8813205E+06
   -3.79   *******    5.598E+00    1.9046163E+06    7.4146412E-08    7.3877530E-08    1.9046163E+06    1.9202599E-07    1.9047003E+06
   -3.78   *******    5.508E+00    1.9278440E+06    7.2518264E-08    7.2224421E-08    1.9278440E+06    1.8758550E-07    1.9279216E+06
   -3.77   *******    5.421E+00    1.9510083E+06    7.0837550E-08    7.0518723E-08    1.9510083E+06    1.8296790E-07    1.9510799E+06
   -3.76   *******    5.335E+00    1.9742085E+06    6.9113760E-08    6.8769992E-08    1.9742085E+06    1.7819980E-07    1.9742744E+06
   -3.75   *******    5.253E+00    1.9975450E+06    6.7356885E-08    6.6988276E-08    1.9975450E+06    1.7330949E-07    1.9976057E+06
   -3.74   *******    5.173E+00    2.0211177E+06    6.5577230E-08    6.5183938E-08    2.0211177E+06    1.6832646E-07    2.0211735E+06
   -3.73   *******    5.095E+00    2.0450229E+06    6.3785240E-08    6.3367468E-08    2.0450229E+06    1.6328083E-07    2.0450742E+06
   -3.72   *******    5.020E+00    2.0693519E+06    6.1991300E-08    6.1549301E-08    2.0693519E+06    1.5820286E-07    2.0693990E+06
   -3.71   *******    4.948E+00    2.0941888E+06    6.0205566E-08    5.9739630E-08    2.0941888E+06    1.5312236E-07    2.0942320E+06
   -3.70   *******    4.878E+00    2.1196089E+06    5.8437789E-08    5.7948245E-08    2.1196089E+06    1.4806824E-07    2.1196485E+06
   -3.69   *******    4.811E+00    2.1456775E+06    5.6697172E-08    5.6184382E-08    2.1456775E+06    1.4306803E-07    2.1457138E+06
   -3.68   *******    4.746E+00    2.1724489E+06    5.4992243E-08    5.4456599E-08    2.1724489E+06    1.3814751E-07    2.1724822E+06
   -3.67   *******    4.684E+00    2.1999657E+06    5.3330758E-08    5.2772677E-08    2.1999657E+06    1.3333034E-07    2.1999961E+06
   -3.66   *******    4.624E+00    2.2282580E+06    5.1719628E-08    5.1139551E-08    2.2282580E+06    1.2863785E-07    2.2282859E+06
   -3.65   *******    4.566E+00    2.2573439E+06    5.0164872E-08    4.9563260E-08    2.2573439E+06    1.2408883E-07    2.2573694E+06
   -3.64   *******    4.511E+00    2.2872289E+06    4.8671598E-08    4.8048923E-08    2.2872289E+06    1.1969945E-07    2.2872523E+06
   -3.63   *******    4.457E+00    2.3179068E+06    4.7243995E-08    4.6600743E-08    2.3179068E+06    1.1548318E-07    2.3179282E+06
   -3.62   *******    4.406E+00    2.3493599E+06    4.5885357E-08    4.5222019E-08    2.3493599E+06    1.1145082E-07    2.3493796E+06
   -3.61   *******    4.357E+00    2.3815600E+06    4.4598109E-08    4.3915176E-08    2.3815600E+06    1.0761056E-07    2.3815781E+06
   -3.60   *******    4.309E+00    2.4144690E+06    4.3383847E-08    4.2681808E-08    2.4144690E+06    1.0396809E-07    2.4144856E+06
   -3.59   *******    4.264E+00    2.4480399E+06    4.2243388E-08    4.1522725E-08    2.4480399E+06    1.0052671E-07    2.4480551E+06
   -3.58   *******    4.220E+00    2.4822177E+06    4.1176823E-08    4.0438001E-08    2.4822177E+06    9.7287531E-08    2.4822318E+06
   -3.57   *******    4.177E+00    2.5169410E+06    4.0183566E-08    3.9427034E-08    2.5169410E+06    9.4249604E-08    2.5169540E+06
   -3.56   *******    4.136E+00    2.5521425E+06    3.9262410E-08    3.8488596E-08    2.5521425E+06    9.1410138E-08    2.5521545E+06
   -3.55   *******    4.096E+00    2.5877502E+06    3.8411584E-08    3.7620890E-08    2.5877502E+06    8.8764671E-08    2.5877614E+06
   -3.54   *******    4.057E+00    2.6236891E+06    3.7628799E-08    3.6821599E-08    2.6236891E+06    8.6307274E-08    2.6236995E+06
   -3.53   *******    4.020E+00    2.6598813E+06    3.6911309E-08    3.6087945E-08    2.6598813E+06    8.4030736E-08    2.6598911E+06
   -3.52   *******    3.983E+00    2.6962480E+06    3.6255953E-08    3.5416738E-08    2.6962480E+06    8.1926755E-08    2.6962572E+06
   -3.51   *******    3.948E+00    2.7327098E+06    3.5659217E-08    3.4804428E-08    2.7327098E+06    7.9986128E-08    2.7327185E+06
   -3.50   *******    3.913E+00    2.7691879E+06    3.5117278E-08    3.4247163E-08    2.7691879E+06    7.8198924E-08    2.7691962E+06
   -3.49   *******    3.879E+00    2.8056049E+06    3.4626066E-08    3.3740838E-08    2.8056049E+06    7.6554670E-08    2.8056128E+06
   -3.48   *******    3.845E+00    2.8418852E+06    3.4181315E-08    3.3281159E-08    2.8418852E+06    7.5042515E-08    2.8418929E+06
   -3.47   *******    3.812E+00    2.8779563E+06    3.3778623E-08    3.2863697E-08    2.8779563E+06    7.3651401E-08    2.8779638E+06
   -3.46   *******    3.780E+00    2.9137485E+06    3.3413511E-08    3.2483948E-08    2.9137485E+06    7.2370216E-08    2.9137559E+06
   -3.45   *******    3.748E+00    2.9491960E+06    3.3081484E-08    3.2137397E-08    2.9491960E+06    7.1187951E-08    2.9492033E+06
   -3.44   *******    3.716E+00    2.9842363E+06    3.2778090E-08    3.1819575E-08    2.9842363E+06    7.0093832E-08    2.9842436E+06
   -3.43   *******    3.685E+00    3.0188112E+06    3.2498981E-08    3.1526123E-08    3.0188112E+06    6.9077461E-08    3.0188186E+06
   -3.42   *******    3.654E+00    3.0528662E+06    3.2239970E-08    3.1252848E-08    3.0528662E+06    6.8128922E-08    3.0528738E+06
   -3.41   *******    3.623E+00    3.0863506E+06    3.1997087E-08    3.0995778E-08    3.0863506E+06    6.7238895E-08    3.0863583E+06
   -3.40   *******    3.592E+00    3.1192171E+06    3.1766628E-08    3.0751213E-08    3.1192171E+06    6.6398739E-08    3.1192252E+06
   -3.39   *******    3.561E+00    3.1514221E+06    3.1545197E-08    3.0515771E-08    3.1514221E+06    6.5600566E-08    3.1514305E+06
   -3.38   *******    3.530E+00    3.1829244E+06    3.1329748E-08    3.0286419E-08    3.1829244E+06    6.4837294E-08    3.1829333E+06
   -3.37   *******    3.500E+00    3.2136859E+06    3.1117609E-08    3.0060509E-08    3.2136859E+06    6.4102692E-08    3.2136953E+06
   -3.36   *******    3.469E+00    3.2436705E+06    3.0906503E-08    2.9835792E-08    3.2436705E+06    6.3391396E-08    3.2436805E+06
   -3.35   *******    3.438E+00    3.2728441E+06    3.0694562E-08    2.9610432E-08    3.2728441E+06    6.2698919E-08    3.2728548E+06
   -3.34   *******    3.408E+00    3.3011742E+06    3.0480322E-08    2.9383005E-08    3.3011742E+06    6.2021643E-08    3.3011857E+06
   -3.33   *******    3.377E+00    3.3286298E+06    3.0262723E-08    2.9152491E-08    3.3286298E+06    6.1356794E-08    3.3286422E+06
   -3.32   *******    3.346E+00    3.3551812E+06    3.0041085E-08    2.8918254E-08    3.3551812E+06    6.0702413E-08    3.3551946E+06
   -3.31   *******    3.314E+00    3.3807998E+06    2.9815087E-08    2.8680022E-08    3.3807998E+06    6.0057308E-08    3.3808144E+06
   -3.30   *******    3.283E+00    3.4054583E+06    2.9584736E-08    2.8437847E-08    3.4054583E+06    5.9421002E-08    3.4054742E+06
   -3.29   *******    3.251E+00    3.4291307E+06    2.9350325E-08    2.8192070E-08    3.4291307E+06    5.8793673E-08    3.4291480E+06
   -3.28   *******    3.219E+00    3.4517925E+06    2.9112398E-08    2.7943276E-08    3.4517925E+06    5.8176081E-08    3.4518114E+06
   -3.27   *******    3.187E+00    3.4734210E+06    2.8871698E-08    2.7692249E-08    3.4734210E+06    5.7569500E-08    3.4734417E+06
   -3.26   *******    3.155E+00    3.4939956E+06    2.8629122E-08    2.7439923E-08    3.4939956E+06    5.6975636E-08    3.4940181E+06
   -3.25   *******    3.122E+00    3.5134978E+06    2.8385678E-08    2.7187331E-08    3.5134978E+06    5.6396550E-08    3.5135225E+06
   -3.24   *******    3.090E+00    3.5319119E+06    2.8142432E-08    2.6935562E-08    3.5319119E+06    5.5834574E-08    3.5319390E+06
   -3.23   *******    3.056E+00    3.5492253E+06    2.7900474E-08    2.6685717E-08    3.5492253E+06    5.5292231E-08    3.5492550E+06
   -3.22   *******    3.023E+00    3.5654282E+06    2.7660868E-08    2.6438865E-08    3.5654282E+06    5.4772153E-08    3.5654608E+06
   -3.21   *******    2.989E+00    3.5805143E+06    2.7424628E-08    2.6196014E-08    3.5805143E+06    5.4277001E-08    3.5805501E+06
   -3.20   *******    2.954E+00    3.5944808E+06    2.7192681E-08    2.5958078E-08    3.5944808E+06    5.3809395E-08    3.5945200E+06
   -3.19   *******    2.920E+00    3.6073279E+06    2.6965846E-08    2.5725853E-08    3.6073279E+06    5.3371835E-08    3.6073710E+06
   -3.18   *******    2.885E+00    3.6190592E+06    2.6744814E-08    2.5500003E-08    3.6190592E+06    5.2966642E-08    3.6191066E+06
   -3.17   *******    2.849E+00    3.6296809E+06    2.6530139E-08    2.5281044E-08    3.6296809E+06    5.2595887E-08    3.6297329E+06
   -3.16   *******    2.813E+00    3.6392014E+06    2.6322225E-08    2.5069340E-08    3.6392014E+06    5.2261342E-08    3.6392584E+06
   -3.15   *******    2.776E+00    3.6476305E+06    2.6121322E-08    2.4865098E-08    3.6476305E+06    5.1964418E-08    3.6476932E+06
   -3.14   *******    2.739E+00    3.6549787E+06    2.5927530E-08    2.4668368E-08    3.6549787E+06    5.1706124E-08    3.6550475E+06
   -3.13   *******    2.701E+00    3.6612561E+06    2.5740794E-08    2.4479049E-08    3.6612561E+06    5.1487020E-08    3.6613316E+06
   -3.12   *******    2.663E+00    3.6664709E+06    2.5560910E-08    2.4296892E-08    3.6664709E+06    5.1307178E-08    3.6665538E+06
   -3.11   *******    2.623E+00    3.6706286E+06    2.5387534E-08    2.4121505E-08    3.6706286E+06    5.1166149E-08    3.6707195E+06
   -3.10   *******    2.584E+00    3.6737303E+06    2.5220179E-08    2.3952360E-08    3.6737303E+06    5.1062938E-08    3.6738300E+06
   -3.09   *******    2.543E+00    3.6757716E+06    2.5058228E-08    2.3788803E-08    3.6757716E+06    5.0995973E-08    3.6758809E+06
   -3.08   *******    2.502E+00    3.6767413E+06    2.4900935E-08    2.3630054E-08    3.6767413E+06    5.0963097E-08    3.6768610E+06
   -3.07   *******    2.460E+00    3.6766201E+06    2.4747432E-08    2.3475219E-08    3.6766201E+06    5.0961554E-08    3.6767513E+06
   -3.06   *******    2.417E+00    3.6753800E+06    2.4596737E-08    2.3323295E-08    3.6753800E+06    5.0987983E-08    3.6755237E+06
   -3.05   *******    2.373E+00    3.6729837E+06    2.4447756E-08    2.3173174E-08    3.6729837E+06    5.1038432E-08    3.6731410E+06
   -3.04   *******    2.329E+00    3.6693838E+06    2.4299290E-08    2.3023650E-08    3.6693838E+06    5.1108363E-08    3.6695558E+06
   -3.03   *******    2.283E+00    3.6645234E+06    2.4150045E-08    2.2873427E-08    3.6645234E+06    5.1192682E-08    3.6647113E+06
   -3.02   *******    2.237E+00    3.6583358E+06    2.3998634E-08    2.2721125E-08    3.6583358E+06    5.1285771E-08    3.6585411E+06
   -3.01   *******    2.190E+00    3.6507463E+06    2.3843593E-08    2.2565289E-08    3.6507463E+06    5.1381534E-08    3.6509704E+06
   -3.00   *******    2.142E+00    3.6416725E+06    2.3683386E-08    2.2404402E-08    3.6416725E+06    5.1473457E-08    3.6419169E+06
   -2.99   *******    2.094E+00    3.6310263E+06    2.3516422E-08    2.2236894E-08    3.6310263E+06    5.1554681E-08    3.6312926E+06
   -2.98   *******    2.044E+00    3.6187156E+06    2.3341074E-08    2.2061164E-08    3.6187156E+06    5.1618082E-08    3.6190054E+06
   -2.97   *******    1.994E+00    3.6046464E+06    2.3155691E-08    2.1875592E-08    3.6046464E+06    5.1656375E-08    3.6049616E+06
   -2.96   *******    1.944E+00    3.5887255E+06    2.2958629E-08    2.1678567E-08    3.5887255E+06    5.1662221E-08    3.5890679E+06
   -2.95   *******    1.892E+00    3.5708622E+06    2.2748274E-08    2.1468511E-08    3.5708622E+06    5.1628350E-08    3.5712336E+06
   -2.94   *******    1.840E+00    3.5509711E+06    2.2523070E-08    2.1243907E-08    3.5509711E+06    5.1547697E-08    3.5513737E+06
   -2.93   *******    1.788E+00    3.5289747E+06    2.2281553E-08    2.1003331E-08    3.5289747E+06    5.1413531E-08    3.5294103E+06
   -2.92   *******    1.736E+00    3.5048047E+06    2.2022387E-08    2.0745486E-08    3.5048047E+06    5.1219604E-08    3.5052756E+06
   -2.91   *******    1.683E+00    3.4784048E+06    2.1744390E-08    2.0469232E-08    3.4784048E+06    5.0960283E-08    3.4789129E+06
   -2.90   *******    1.630E+00    3.4497316E+06    2.1446576E-08    2.0173626E-08    3.4497316E+06    5.0630684E-08    3.4502791E+06
   -2.89   *******    1.577E+00    3.4187564E+06    2.1128181E-08    1.9857943E-08    3.4187564E+06    5.0226791E-08    3.4193453E+06
   -2.88   *******    1.524E+00    3.3854656E+06    2.0788691E-08    1.9521710E-08    3.3854656E+06    4.9745560E-08    3.3860980E+06
   -2.87   *******    1.471E+00    3.3498615E+06    2.0427864E-08    1.9164725E-08    3.3498615E+06    4.9184999E-08    3.3505394E+06
   -2.86   *******    1.418E+00    3.3119624E+06    2.0045746E-08    1.8787073E-08    3.3119624E+06    4.8544228E-08    3.3126878E+06
   -2.85   *******    1.366E+00    3.2718023E+06    1.9642681E-08    1.8389133E-08    3.2718023E+06    4.7823505E-08    3.2725769E+06
   -2.84   *******    1.315E+00    3.2294301E+06    1.9219309E-08    1.7971579E-08    3.2294301E+06    4.7024230E-08    3.2302557E+06
   -2.83   *******    1.264E+00    3.1849089E+06    1.8776560E-08    1.7535375E-08    3.1849089E+06    4.6148910E-08    3.1857871E+06
   -2.82   *******    1.213E+00    3.1383151E+06    1.8315639E-08    1.7081755E-08    3.1383151E+06    4.5201104E-08    3.1392473E+06
   -2.81   *******    1.164E+00    3.0897366E+06    1.7838003E-08    1.6612201E-08    3.0897366E+06    4.4185336E-08    3.0907240E+06
   -2.80   *******    1.115E+00    3.0392715E+06    1.7345331E-08    1.6128417E-08    3.0392715E+06    4.3106987E-08    3.0403151E+06
   -2.79   *******    1.068E+00    2.9870266E+06    1.6839488E-08    1.5632290E-08    2.9870266E+06    4.1972163E-08    2.9881272E+06
   -2.78   *******    1.022E+00    2.9331157E+06    1.6322491E-08    1.5125851E-08    2.9331157E+06    4.0787559E-08    2.9342738E+06
   -2.77   *******    9.764E-01    2.8776578E+06    1.5796461E-08    1.4611237E-08    2.8776578E+06    3.9560300E-08    2.8788739E+06
   -2.76   *******    9.324E-01    2.8207761E+06    1.5263588E-08    1.4090647E-08    2.8207761E+06    3.8297793E-08    2.8220501E+06
   -2.75   *******    8.896E-01    2.7625959E+06    1.4726085E-08    1.3566299E-08    2.7625959E+06    3.7007569E-08    2.7639276E+06
   -2.74   *******    8.482E-01    2.7032437E+06    1.4186147E-08    1.3040392E-08    2.7032437E+06    3.5697141E-08    2.7046327E+06
   -2.73   *******    8.080E-01    2.6428457E+06    1.3645919E-08    1.2515067E-08    2.6428457E+06    3.4373867E-08    2.6442912E+06
   -2.72   *******    7.692E-01    2.5815272E+06    1.3107461E-08    1.1992381E-08    2.5815272E+06    3.3044829E-08    2.5830283E+06
   -2.71   *******    7.318E-01    2.5194112E+06    1.2572721E-08    1.1474271E-08    2.5194112E+06    3.1716731E-08    2.5209666E+06
   -2.70   *******    6.958E-01    2.4566182E+06    1.2043513E-08    1.0962538E-08    2.4566182E+06    3.0395819E-08    2.4582264E+06
   -2.69   *******    6.610E-01    2.3932652E+06    1.1521501E-08    1.0458828E-08    2.3932652E+06    2.9087809E-08    2.3949246E+06
   -2.68   *******    6.277E-01    2.3294658E+06    1.1008184E-08    9.9646197E-09    2.3294658E+06    2.7797850E-08    2.3311743E+06
   -2.67   *******    5.957E-01    2.2653295E+06    1.0504895E-08    9.4812212E-09    2.2653295E+06    2.6530496E-08    2.2670850E+06
   -2.66   *******    5.649E-01    2.2009617E+06    1.0012797E-08    9.0097657E-09    2.2009617E+06    2.5289698E-08    2.2027618E+06
   -2.65   *******    5.355E-01    2.1364639E+06    9.5328820E-09    8.5512153E-09    2.1364639E+06    2.4078810E-08    2.1383061E+06
   -2.64   *******    5.073E-01    2.0719334E+06    9.0659841E-09    8.1063664E-09    2.0719334E+06    2.2900614E-08    2.0738149E+06
   -2.63   *******    4.803E-01    2.0074636E+06    8.6127822E-09    7.6758588E-09    2.0074636E+06    2.1757345E-08    2.0093816E+06
   -2.62   *******    4.546E-01    1.9431441E+06    8.1738123E-09    7.2601856E-09    1.9431441E+06    2.0650737E-08    1.9450955E+06
   -2.61   *******    4.300E-01    1.8790611E+06    7.7494797E-09    6.8597053E-09    1.8790611E+06    1.9582062E-08    1.8810426E+06
   -2.60   *******    4.065E-01    1.8152972E+06    7.3400708E-09    6.4746546E-09    1.8152972E+06    1.8552180E-08    1.8173055E+06
   -2.59   *******    3.840E-01    1.7519321E+06    6.9457657E-09    6.1051605E-09    1.7519321E+06    1.7561589E-08    1.7539638E+06
   -2.58   *******    3.626E-01    1.6890425E+06    6.5666509E-09    5.7512532E-09    1.6890425E+06    1.6610472E-08    1.6910941E+06
   -2.57   *******    3.422E-01    1.6267028E+06    6.2027301E-09    5.4128777E-09    1.6267028E+06    1.5698746E-08    1.6287705E+06
   -2.56   *******    3.228E-01    1.5649848E+06    5.8539358E-09    5.0899051E-09    1.5649848E+06    1.4826101E-08    1.5670648E+06
   -2.55   *******    3.043E-01    1.5039582E+06    5.5201388E-09    4.7821428E-09    1.5039582E+06    1.3992046E-08    1.5060468E+06
   -2.54   *******    2.867E-01    1.4436907E+06    5.2011572E-09    4.4893437E-09    1.4436907E+06    1.3195941E-08    1.4457839E+06
   -2.53   *******    2.699E-01    1.3842484E+06    4.8967644E-09    4.2112151E-09    1.3842484E+06    1.2437027E-08    1.3863422E+06
   -2.52   *******    2.540E-01    1.3256955E+06    4.6066966E-09    3.9474263E-09    1.3256955E+06    1.1714458E-08    1.3277859E+06
   -2.51   *******    2.388E-01    1.2680947E+06    4.3306592E-09    3.6976156E-09    1.2680947E+06    1.1027321E-08    1.2701776E+06
   -2.50   *******    2.244E-01    1.2115072E+06    4.0683326E-09    3.4613968E-09    1.2115072E+06    1.0374656E-08    1.2135785E+06
   -2.49   *******    2.107E-01    1.1559924E+06    3.8193779E-09    3.2383656E-09    1.1559924E+06    9.7554728E-09    1.1580481E+06
   -2.48   *******    1.977E-01    1.1016082E+06    3.5834417E-09    3.0281045E-09    1.1016082E+06    9.1687635E-09    1.1036442E+06
   -2.47   *******    1.853E-01    1.0484108E+06    3.3601607E-09    2.8301886E-09    1.0484108E+06    8.6135150E-09    1.0504229E+06
   -2.46   *******    1.736E-01    9.9645422E+05    3.1491661E-09    2.6441899E-09    9.9645422E+05    8.0887178E-09    9.9843854E+05
   -2.45   *******    1.625E-01    9.4579044E+05    2.9500876E-09    2.4696817E-09    9.4579044E+05    7.5933736E-09    9.4774304E+05
   -2.44   *******    1.520E-01    8.9646891E+05    2.7625568E-09    2.3062432E-09    8.9646891E+05    7.1265027E-09    8.9838598E+05
   -2.43   *******    1.420E-01    8.4853633E+05    2.5862109E-09    2.1534622E-09    8.4853633E+05    6.6871492E-09    8.5041419E+05
   -2.42   *******    1.326E-01    8.0203625E+05    2.4206951E-09    2.0109390E-09    8.0203625E+05    6.2743873E-09    8.0387140E+05
   -2.41   *******    1.236E-01    7.5700868E+05    2.2656655E-09    1.8782886E-09    7.5700868E+05    5.8873255E-09    7.5879783E+05
   -2.40   *******    1.152E-01    7.1348975E+05    2.1207912E-09    1.7551436E-09    7.1348975E+05    5.5251115E-09    7.1522981E+05
   -2.39   *******    1.072E-01    6.7151124E+05    1.9857561E-09    1.6411554E-09    6.7151124E+05    5.1869361E-09    6.7319940E+05
   -2.38   *******    9.972E-02    6.3110024E+05    1.8602607E-09    1.5359966E-09    6.3110024E+05    4.8720376E-09    6.3273398E+05
   -2.37   *******    9.265E-02    5.9227875E+05    1.7440229E-09    1.4393615E-09    5.9227875E+05    4.5797051E-09    5.9385585E+05
   -2.36   *******    8.598E-02    5.5506339E+05    1.6367793E-09    1.3509677E-09    5.5506339E+05    4.3092818E-09    5.5658196E+05
   -2.35   *******    7.972E-02    5.1946507E+05    1.5382863E-09    1.2705568E-09    5.1946507E+05    4.0601680E-09    5.2092359E+05
   -2.34   *******    7.383E-02    4.8548887E+05    1.4483207E-09    1.1978949E-09    4.8548887E+05    3.8318240E-09    4.8688615E+05
   -2.33   *******    6.831E-02    4.5313383E+05    1.3666805E-09    1.1327738E-09    4.5313383E+05    3.6237724E-09    4.5446906E+05
   -2.32   *******    6.314E-02    4.2239297E+05    1.2931862E-09    1.0750115E-09    4.2239297E+05    3.4356008E-09    4.2366570E+05
   -2.31   *******    5.830E-02    3.9325332E+05    1.2276815E-09    1.0244533E-09    3.9325332E+05    3.2669638E-09    3.9446347E+05
   -2.30   *******    5.377E-02    3.6569612E+05    1.1700346E-09    9.8097255E-10    3.6569612E+05    3.1175857E-09    3.6684395E+05
   -2.29   *******    4.954E-02    3.3969702E+05    1.1201398E-09    9.4447233E-10    3.3969702E+05    2.9872628E-09    3.4078312E+05
   -2.28   *******    4.559E-02    3.1522646E+05    1.0779194E-09    9.1488653E-10    3.1522646E+05    2.8758667E-09    3.1625172E+05
   -2.27   *******    4.192E-02    2.9225008E+05    1.0433248E-09    8.9218166E-10    2.9225008E+05    2.7833473E-09    2.9321570E+05
   -2.26   *******    3.849E-02    2.7072925E+05    1.0163399E-09    8.7635873E-10    2.7072925E+05    2.7097370E-09    2.7163667E+05
   -2.25   *******    3.531E-02    2.5062160E+05    9.9698230E-10    8.6745534E-10    2.5062160E+05    2.6551548E-09    2.5147248E+05
   -2.24   *******    3.236E-02    2.3188162E+05    9.8530696E-10    8.6554802E-10    2.3188162E+05    2.6198116E-09    2.3267783E+05
   -2.23   *******    2.962E-02    2.1446133E+05    9.8140844E-10    8.7075472E-10    2.1446133E+05    2.6040161E-09    2.1520490E+05
   -2.22   *******    2.707E-02    1.9831089E+05    9.8542425E-10    8.8323757E-10    1.9831089E+05    2.6081809E-09    1.9900395E+05
   -2.21   *******    2.471E-02    1.8337923E+05    9.9753803E-10    9.0320579E-10    1.8337923E+05    2.6328304E-09    1.8402404E+05
   -2.20   *******    2.253E-02    1.6961472E+05    1.0179830E-09    9.3091880E-10    1.6961472E+05    2.6786081E-09    1.7021360E+05
   -2.19   *******    2.051E-02    1.5696573E+05    1.0470455E-09    9.6668947E-10    1.5696573E+05    2.7462854E-09    1.5752103E+05
   -2.18   *******    1.864E-02    1.4538120E+05    1.0850690E-09    1.0108876E-09    1.4538120E+05    2.8367710E-09    1.4589529E+05
   -2.17   *******    1.690E-02    1.3481119E+05    1.1324575E-09    1.0639436E-09    1.3481119E+05    2.9511200E-09    1.3528643E+05
   -2.16   *******    1.530E-02    1.2520729E+05    1.1896802E-09    1.1263521E-09    1.2520729E+05    3.0905450E-09    1.2564600E+05
   -2.15   *******    1.381E-02    1.1652308E+05    1.2572750E-09    1.1986761E-09    1.1652308E+05    3.2564262E-09    1.1692754E+05
   -2.14   *******    1.243E-02    1.0871448E+05    1.3358534E-09    1.2815510E-09    1.0871448E+05    3.4503223E-09    1.0908693E+05
   -2.13   *******    1.115E-02    1.0174010E+05    1.4261044E-09    1.3756886E-09    1.0174010E+05    3.6739823E-09    1.0208267E+05
   -2.12   *******    9.956E-03    9.5561436E+04    1.5287992E-09    1.4818817E-09    9.5561436E+04    3.9293565E-09    9.5876192E+04
   -2.11   *******    8.844E-03    9.0143153E+04    1.6447952E-09    1.6010080E-09    9.0143153E+04    4.2186077E-09    9.0432071E+04
   -2.10   *******    7.804E-03    8.5453236E+04    1.7750409E-09    1.7340348E-09    8.5453236E+04    4.5441229E-09    8.5718195E+04
   -2.09   *******    6.829E-03    8.1463133E+04    1.9205801E-09    1.8820229E-09    8.1463133E+04    4.9085238E-09    8.1705914E+04
   -2.08   *******    5.911E-03    7.8147861E+04    2.0825555E-09    2.0461310E-09    7.8147861E+04    5.3146770E-09    7.8370148E+04
   -2.07   *******    5.043E-03    7.5486084E+04    2.2622130E-09    2.2276187E-09    7.5486084E+04    5.7657033E-09    7.5689460E+04
   -2.06   *******    4.218E-03    7.3460163E+04    2.4609048E-09    2.4278508E-09    7.3460163E+04    6.2649854E-09    7.3646112E+04
   -2.05   *******    3.429E-03    7.2056181E+04    2.6800920E-09    2.6482992E-09    7.2056181E+04    6.8161746E-09    7.2226093E+04
   -2.04   *******    2.671E-03    7.1263953E+04    2.9213469E-09    2.8905451E-09    7.1263953E+04    7.4231944E-09    7.1419124E+04
   -2.03   *******    1.938E-03    7.1077017E+04    3.1863536E-09    3.1562801E-09    7.1077017E+04    8.0902417E-09    7.1218653E+04
   -2.02   *******    1.223E-03    7.1492605E+04    3.4769080E-09    3.4473059E-09    7.1492605E+04    8.8217855E-09    7.1621825E+04
   -2.01   *******    5.200E-04    7.2511603E+04    3.7949157E-09    3.7655324E-09    7.2511603E+04    9.6225599E-09    7.2629444E+04
   -2.00   *******   -1.755E-04    7.4138492E+04    4.1423889E-09    4.1129745E-09    7.4138492E+04    1.0497554E-08    7.4245913E+04
   -1.99   *******   -8.691E-04    7.6381275E+04    4.5214407E-09    4.4917463E-09    7.6381275E+04    1.1451994E-08    7.6479163E+04
   -1.98   *******   -1.566E-03    7.9251390E+04    4.9342768E-09    4.9040533E-09    7.9251390E+04    1.2491325E-08    7.9340560E+04
   -1.97   *******   -2.272E-03    8.2763596E+04    5.3831853E-09    5.3521819E-09    8.2763596E+04    1.3621174E-08    8.2844800E+04
   -1.96   *******   -2.993E-03    8.6935848E+04    5.8705233E-09    5.8384859E-09    8.6935848E+04    1.4847320E-08    8.7009777E+04
   -1.95   *******   -3.732E-03    9.1789143E+04    6.3986996E-09    6.3653698E-09    9.1789143E+04    1.6175644E-08    9.1856432E+04
   -1.94   *******   -4.495E-03    9.7347348E+04    6.9701550E-09    6.9352690E-09    9.7347348E+04    1.7612078E-08    9.7408580E+04
   -1.93   *******   -5.287E-03    1.0363699E+05    7.5873390E-09    7.5506264E-09    1.0363699E+05    1.9162538E-08    1.0369270E+05
   -1.92   *******   -6.113E-03    1.1068705E+05    8.2526825E-09    8.2138652E-09    1.1068705E+05    2.0832856E-08    1.1073772E+05
   -1.91   *******   -6.979E-03    1.1852866E+05    8.9685675E-09    8.9273593E-09    1.1852866E+05    2.2628700E-08    1.1857474E+05
   -1.90   *******   -7.888E-03    1.2719485E+05    9.7372944E-09    9.6934003E-09    1.2719485E+05    2.4555484E-08    1.2723676E+05
   -1.89   *******   -8.846E-03    1.3672023E+05    1.0561045E-08    1.0514161E-08    1.3672023E+05    2.6618282E-08    1.3675833E+05
   -1.88   *******   -9.857E-03    1.4714063E+05    1.1441848E-08    1.1391660E-08    1.4714063E+05    2.8821723E-08    1.4717526E+05
   -1.87   *******   -1.093E-02    1.5849273E+05    1.2381535E-08    1.2327721E-08    1.5849273E+05    3.1169901E-08    1.5852421E+05
   -1.86   *******   -1.206E-02    1.7081368E+05    1.3381708E-08    1.3323937E-08    1.7081368E+05    3.3666276E-08    1.7084230E+05
   -1.85   *******   -1.326E-02    1.8414071E+05    1.4443696E-08    1.4381631E-08    1.8414071E+05    3.6313584E-08    1.8416672E+05
   -1.84   *******   -1.453E-02    1.9851068E+05    1.5568529E-08    1.5501823E-08    1.9851068E+05    3.9113752E-08    1.9853431E+05
   -1.83   *******   -1.588E-02    2.1395967E+05    1.6756895E-08    1.6685202E-08    2.1395967E+05    4.2067837E-08    2.1398115E+05
   -1.82   *******   -1.731E-02    2.3052262E+05    1.8009126E-08    1.7932095E-08    2.3052262E+05    4.5175961E-08    2.3054213E+05
   -1.81   *******   -1.882E-02    2.4823287E+05    1.9325173E-08    1.9242454E-08    2.4823287E+05    4.8437287E-08    2.4825060E+05
   -1.80   *******   -2.042E-02    2.6712183E+05    2.0704593E-08    2.0615843E-08    2.6712183E+05    5.1849999E-08    2.6713793E+05
   -1.79   *******   -2.211E-02    2.8721861E+05    2.2146551E-08    2.2051435E-08    2.8721861E+05    5.5411317E-08    2.8723324E+05
   -1.78   *******   -2.389E-02    3.0854976E+05    2.3649818E-08    2.3548016E-08    3.0854976E+05    5.9117527E-08    3.0856305E+05
   -1.77   *******   -2.577E-02    3.3113897E+05    2.5212792E-08    2.5104005E-08    3.3113897E+05    6.2964044E-08    3.3115105E+05
   -1.76   *******   -2.775E-02    3.5500687E+05    2.6833513E-08    2.6717468E-08    3.5500687E+05    6.6945486E-08    3.5501785E+05
   -1.75   *******   -2.984E-02    3.8017091E+05    2.8509698E-08    2.8386157E-08    3.8017091E+05    7.1055771E-08    3.8018088E+05
   -1.74   *******   -3.202E-02    4.0664520E+05    3.0238772E-08    3.0107540E-08    4.0664520E+05    7.5288237E-08    4.0665426E+05
   -1.73   *******   -3.432E-02    4.3444050E+05    3.2017915E-08    3.1878848E-08    4.3444050E+05    7.9635756E-08    4.3444874E+05
   -1.72   *******   -3.672E-02    4.6356423E+05    3.3844102E-08    3.3697116E-08    4.6356423E+05    8.4090872E-08    4.6357172E+05
   -1.71   *******   -3.923E-02    4.9402048E+05    3.5714153E-08    3.5559238E-08    4.9402048E+05    8.8645932E-08    4.9402729E+05
   -1.70   *******   -4.185E-02    5.2581015E+05    3.7624786E-08    3.7462011E-08    5.2581015E+05    9.3293216E-08    5.2581634E+05
   -1.69   *******   -4.459E-02    5.5893106E+05    3.9572661E-08    3.9402188E-08    5.5893106E+05    9.8025071E-08    5.5893669E+05
   -1.68   *******   -4.743E-02    5.9337814E+05    4.1554435E-08    4.1376527E-08    5.9337814E+05    1.0283403E-07    5.9338326E+05
   -1.67   *******   -5.039E-02    6.2914359E+05    4.3566804E-08    4.3381840E-08    6.2914359E+05    1.0771291E-07    6.2914825E+05
   -1.66   *******   -5.346E-02    6.6621711E+05    4.5606549E-08    4.5415028E-08    6.6621711E+05    1.1265494E-07    6.6622136E+05
   -1.65   *******   -5.664E-02    7.0458616E+05    4.7670573E-08    4.7473126E-08    7.0458616E+05    1.1765380E-07    7.0459003E+05
   -1.64   *******   -5.993E-02    7.4423612E+05    4.9755934E-08    4.9553331E-08    7.4423612E+05    1.2270373E-07    7.4423965E+05
   -1.63   *******   -6.333E-02    7.8515057E+05    5.1859863E-08    5.1653021E-08    7.8515057E+05    1.2779951E-07    7.8515379E+05
   -1.62   *******   -6.685E-02    8.2731153E+05    5.3979785E-08    5.3769769E-08    8.2731153E+05    1.3293654E-07    8.2731447E+05
   -1.61   *******   -7.047E-02    8.7069963E+05    5.6113312E-08    5.5901340E-08    8.7069963E+05    1.3811072E-07    8.7070232E+05
   -1.60   *******   -7.421E-02    9.1529435E+05    5.8258232E-08    5.8045678E-08    9.1529435E+05    1.4331848E-07    9.1529682E+05
   -1.59   *******   -7.806E-02    9.6107421E+05    6.0412486E-08    6.0200875E-08    9.6107421E+05    1.4855661E-07    9.6107648E+05
   -1.58   *******   -8.201E-02    1.0080169E+06    6.2574127E-08    6.2365131E-08    1.0080169E+06    1.5382218E-07    1.0080190E+06
   -1.57   *******   -8.607E-02    1.0560996E+06    6.4741263E-08    6.4536701E-08    1.0560996E+06    1.5911230E-07    1.0561015E+06
   -1.56   *******   -9.024E-02    1.1052988E+06    6.6912005E-08    6.6713828E-08    1.1052988E+06    1.6442397E-07    1.1053005E+06
   -1.55   *******   -9.451E-02    1.1555907E+06    6.9084389E-08    6.8894680E-08    1.1555907E+06    1.6975385E-07    1.1555923E+06
   -1.54   *******   -9.889E-02    1.2069512E+06    7.1256314E-08    7.1077269E-08    1.2069512E+06    1.7509803E-07    1.2069527E+06
   -1.53   *******   -1.034E-01    1.2593561E+06    7.3425471E-08    7.3259392E-08    1.2593561E+06    1.8045179E-07    1.2593575E+06
   -1.52   *******   -1.080E-01    1.3127809E+06    7.5589283E-08    7.5438566E-08    1.3127809E+06    1.8580945E-07    1.3127822E+06
   -1.51   *******   -1.126E-01    1.3672012E+06    7.7744863E-08    7.7611983E-08    1.3672012E+06    1.9116419E-07    1.3672025E+06
   -1.50   *******   -1.174E-01    1.4225926E+06    7.9888983E-08    7.9776479E-08    1.4225926E+06    1.9650796E-07    1.4225938E+06
   -1.49   *******   -1.223E-01    1.4789305E+06    8.2018066E-08    8.1928531E-08    1.4789305E+06    2.0183144E-07    1.4789317E+06
   -1.48   *******   -1.273E-01    1.5361908E+06    8.4128204E-08    8.4064267E-08    1.5361908E+06    2.0712409E-07    1.5361919E+06
   -1.47   *******   -1.324E-01    1.5943490E+06    8.6215198E-08    8.6179511E-08    1.5943490E+06    2.1237428E-07    1.5943501E+06
   -1.46   *******   -1.376E-01    1.6533811E+06    8.8274619E-08    8.8269842E-08    1.6533811E+06    2.1756943E-07    1.6533822E+06
   -1.45   *******   -1.429E-01    1.7132631E+06    9.0301899E-08    9.0330686E-08    1.7132631E+06    2.2269634E-07    1.7132642E+06
   -1.44   *******   -1.482E-01    1.7739713E+06    9.2292428E-08    9.2357411E-08    1.7739713E+06    2.2774145E-07    1.7739724E+06
   -1.43   *******   -1.537E-01    1.8354819E+06    9.4241673E-08    9.4345445E-08    1.8354819E+06    2.3269123E-07    1.8354830E+06
   -1.42   *******   -1.593E-01    1.8977715E+06    9.6145297E-08    9.6290398E-08    1.8977715E+06    2.3753253E-07    1.8977727E+06
   -1.41   *******   -1.649E-01    1.9608171E+06    9.7999278E-08    9.8188181E-08    1.9608171E+06    2.4225298E-07    1.9608183E+06
   -1.40   *******   -1.707E-01    2.0245955E+06    9.9800028E-08    1.0003512E-07    2.0245955E+06    2.4684133E-07    2.0245967E+06
   -1.39   *******   -1.765E-01    2.0890841E+06    1.0154449E-07    1.0182806E-07    2.0890841E+06    2.5128777E-07    2.0890854E+06
   -1.38   *******   -1.825E-01    2.1542605E+06    1.0323024E-07    1.0356445E-07    2.1542605E+06    2.5558418E-07    2.1542619E+06
   -1.37   *******   -1.885E-01    2.2201026E+06    1.0485552E-07    1.0524240E-07    2.2201026E+06    2.5972435E-07    2.2201041E+06
   -1.36   *******   -1.946E-01    2.2865887E+06    1.0641930E-07    1.0686073E-07    2.2865887E+06    2.6370408E-07    2.2865902E+06
   -1.35   *******   -2.008E-01    2.3536973E+06    1.0792129E-07    1.0841899E-07    2.3536973E+06    2.6752123E-07    2.3536990E+06
   -1.34   *******   -2.071E-01    2.4214076E+06    1.0936194E-07    1.0991745E-07    2.4214076E+06    2.7117569E-07    2.4214094E+06
   -1.33   *******   -2.135E-01    2.4896990E+06    1.1074242E-07    1.1135706E-07    2.4896990E+06    2.7466929E-07    2.4897010E+06
   -1.32   *******   -2.200E-01    2.5585516E+06    1.1206454E-07    1.1273943E-07    2.5585516E+06    2.7800566E-07    2.5585537E+06
   -1.31   *******   -2.266E-01    2.6279458E+06    1.1333075E-07    1.1406679E-07    2.6279458E+06    2.8119004E-07    2.6279481E+06
   -1.30   *******   -2.332E-01    2.6978626E+06    1.1454403E-07    1.1534188E-07    2.6978626E+06    2.8422908E-07    2.6978651E+06
   -1.29   *******   -2.400E-01    2.7682834E+06    1.1570784E-07    1.1656791E-07    2.7682834E+06    2.8713065E-07    2.7682861E+06
   -1.28   *******   -2.468E-01    2.8391903E+06    1.1682607E-07    1.1774851E-07    2.8391903E+06    2.8990361E-07    2.8391933E+06
   -1.27   *******   -2.538E-01    2.9105656E+06    1.1790293E-07    1.1888763E-07    2.9105656E+06    2.9255763E-07    2.9105689E+06
   -1.26   *******   -2.608E-01    2.9823923E+06    1.1894294E-07    1.1998953E-07    2.9823923E+06    2.9510309E-07    2.9823958E+06
   -1.25   *******   -2.679E-01    3.0546536E+06    1.1995085E-07    1.2105869E-07    3.0546536E+06    2.9755094E-07    3.0546575E+06
   -1.24   *******   -2.751E-01    3.1273332E+06    1.2093160E-07    1.2209978E-07    3.1273332E+06    2.9991267E-07    3.1273375E+06
   -1.23   *******   -2.823E-01    3.2004152E+06    1.2189029E-07    1.2311764E-07    3.2004152E+06    3.0220026E-07    3.2004199E+06
   -1.22   *******   -2.897E-01    3.2738837E+06    1.2283213E-07    1.2411722E-07    3.2738837E+06    3.0442622E-07    3.2738889E+06
   -1.21   *******   -2.971E-01    3.3477233E+06    1.2376242E-07    1.2510360E-07    3.3477233E+06    3.0660359E-07    3.3477289E+06
   -1.20   *******   -3.047E-01    3.4219185E+06    1.2468652E-07    1.2608188E-07    3.4219185E+06    3.0874599E-07    3.4219247E+06
   -1.19   *******   -3.123E-01    3.4964540E+06    1.2560979E-07    1.2705721E-07    3.4964540E+06    3.1086763E-07    3.4964609E+06
   -1.18   *******   -3.200E-01    3.5713146E+06    1.2653753E-07    1.2803470E-07    3.5713146E+06    3.1298330E-07    3.5713221E+06
   -1.17   *******   -3.278E-01    3.6464848E+06    1.2747496E-07    1.2901939E-07    3.6464848E+06    3.1510828E-07    3.6464931E+06
   -1.16   *******   -3.357E-01    3.7219493E+06    1.2842710E-07    1.3001615E-07    3.7219493E+06    3.1725823E-07    3.7219584E+06
   -1.15   *******   -3.437E-01    3.7976922E+06    1.2939872E-07    1.3102960E-07    3.7976922E+06    3.1944899E-07    3.7977022E+06
   -1.14   *******   -3.518E-01    3.8736975E+06    1.3039420E-07    1.3206404E-07    3.8736975E+06    3.2169635E-07    3.8737085E+06
   -1.13   *******   -3.600E-01    3.9499488E+06    1.3141747E-07    1.3312331E-07    3.9499488E+06    3.2401565E-07    3.9499610E+06
   -1.12   *******   -3.682E-01    4.0264293E+06    1.3247189E-07    1.3421070E-07    4.0264293E+06    3.2642152E-07    4.0264427E+06
   -1.11   *******   -3.766E-01    4.1031215E+06    1.3356013E-07    1.3532887E-07    4.1031215E+06    3.2892739E-07    4.1031363E+06
   -1.10   *******   -3.850E-01    4.1800074E+06    1.3468410E-07    1.3647972E-07    4.1800074E+06    3.3154513E-07    4.1800237E+06
   -1.09   *******   -3.935E-01    4.2570683E+06    1.3584487E-07    1.3766434E-07    4.2570683E+06    3.3428467E-07    4.2570863E+06
   -1.08   *******   -4.022E-01    4.3342848E+06    1.3704261E-07    1.3888293E-07    4.3342848E+06    3.3715366E-07    4.3343046E+06
   -1.07   *******   -4.109E-01    4.4116368E+06    1.3827658E-07    1.4013482E-07    4.4116368E+06    3.4015718E-07    4.4116585E+06
   -1.06   *******   -4.197E-01    4.4891031E+06    1.3954512E-07    1.4141840E-07    4.4891031E+06    3.4329759E-07    4.4891271E+06
   -1.05   *******   -4.286E-01    4.5666623E+06    1.4084567E-07    1.4273123E-07    4.5666623E+06    3.4657441E-07    4.5666887E+06
   -1.04   *******   -4.376E-01    4.6442919E+06    1.4217487E-07    1.4407004E-07    4.6442919E+06    3.4998437E-07    4.6443209E+06
   -1.03   *******   -4.467E-01    4.7219686E+06    1.4352864E-07    1.4543085E-07    4.7219686E+06    3.5352153E-07    4.7220006E+06
   -1.02   *******   -4.559E-01    4.7996687E+06    1.4490225E-07    1.4680906E-07    4.7996687E+06    3.5717749E-07    4.7997039E+06
   -1.01   *******   -4.652E-01    4.8773676E+06    1.4629050E-07    1.4819958E-07    4.8773676E+06    3.6094164E-07    4.8774064E+06
   -1.00   *******   -4.746E-01    4.9550402E+06    1.4768780E-07    1.4959697E-07    4.9550402E+06    3.6480157E-07    4.9550829E+06
   -0.99   *******   -4.841E-01    5.0326607E+06    1.4908832E-07    1.5099553E-07    5.0326607E+06    3.6874336E-07    5.0327077E+06
   -0.98   *******   -4.937E-01    5.1102026E+06    1.5048609E-07    1.5238943E-07    5.1102026E+06    3.7275196E-07    5.1102544E+06
   -0.97   *******   -5.034E-01    5.1876388E+06    1.5187507E-07    1.5377280E-07    5.1876388E+06    3.7681152E-07    5.1876958E+06
   -0.96   *******   -5.132E-01    5.2649413E+06    1.5324927E-07    1.5513981E-07    5.2649413E+06    3.8090569E-07    5.2650041E+06
   -0.95   *******   -5.231E-01    5.3420812E+06    1.5460274E-07    1.5648470E-07    5.3420812E+06    3.8501778E-07    5.3421504E+06
   -0.94   *******   -5.331E-01    5.4190286E+06    1.5592960E-07    1.5780179E-07    5.4190286E+06    3.8913094E-07    5.4191048E+06
   -0.93   *******   -5.433E-01    5.4957523E+06    1.5722404E-07    1.5908550E-07    5.4957523E+06    3.9322824E-07    5.4958362E+06
   -0.92   *******   -5.535E-01    5.5722198E+06    1.5848030E-07    1.6033031E-07    5.5722198E+06    3.9729267E-07    5.5723121E+06
   -0.91   *******   -5.638E-01    5.6483966E+06    1.5969262E-07    1.6153072E-07    5.6483966E+06    4.0130711E-07    5.6484983E+06
   -0.90   *******   -5.743E-01    5.7242468E+06    1.6085519E-07    1.6268123E-07    5.7242468E+06    4.0525432E-07    5.7243588E+06
   -0.89   *******   -5.848E-01    5.7997322E+06    1.6196219E-07    1.6377630E-07    5.7997322E+06    4.0911684E-07    5.7998555E+06
   -0.88   *******   -5.955E-01    5.8748125E+06    1.6300768E-07    1.6481035E-07    5.8748125E+06    4.1287703E-07    5.8749482E+06
   -0.87   *******   -6.063E-01    5.9494450E+06    1.6398572E-07    1.6577774E-07    5.9494450E+06    4.1651705E-07    5.9495944E+06
   -0.86   *******   -6.172E-01    6.0235846E+06    1.6489030E-07    1.6667283E-07    6.0235846E+06    4.2001896E-07    6.0237490E+06
   -0.85   *******   -6.282E-01    6.0971836E+06    1.6571550E-07    1.6749001E-07    6.0971836E+06    4.2336486E-07    6.0973646E+06
   -0.84   *******   -6.394E-01    6.1701918E+06    1.6645551E-07    1.6822383E-07    6.1701918E+06    4.2653711E-07    6.1703911E+06
   -0.83   *******   -6.506E-01    6.2425566E+06    1.6710478E-07    1.6886902E-07    6.2425566E+06    4.2951857E-07    6.2427758E+06
   -0.82   *******   -6.620E-01    6.3142227E+06    1.6765812E-07    1.6942070E-07    6.3142227E+06    4.3229293E-07    6.3144639E+06
   -0.81   *******   -6.735E-01    6.3851326E+06    1.6811088E-07    1.6987443E-07    6.3851326E+06    4.3484501E-07    6.3853980E+06
   -0.80   *******   -6.851E-01    6.4552267E+06    1.6845900E-07    1.7022639E-07    6.4552267E+06    4.3716110E-07    6.4555187E+06
   -0.79   *******   -6.969E-01    6.5244436E+06    1.6869922E-07    1.7047344E-07    6.5244436E+06    4.3922928E-07    6.5247648E+06
   -0.78   *******   -7.087E-01    6.5927199E+06    1.6882911E-07    1.7061326E-07    6.5927199E+06    4.4103965E-07    6.5930732E+06
   -0.77   *******   -7.207E-01    6.6599912E+06    1.6884719E-07    1.7064438E-07    6.6599912E+06    4.4258459E-07    6.6603796E+06
   -0.76   *******   -7.328E-01    6.7261917E+06    1.6875295E-07    1.7056626E-07    6.7261917E+06    4.4385884E-07    6.7266187E+06
   -0.75   *******   -7.450E-01    6.7912551E+06    1.6854689E-07    1.7037930E-07    6.7912551E+06    4.4485964E-07    6.7917246E+06
   -0.74   *******   -7.573E-01    6.8551149E+06    1.6823048E-07    1.7008479E-07    6.8551149E+06    4.4558665E-07    6.8556308E+06
   -0.73   *******   -7.698E-01    6.9177041E+06    1.6780610E-07    1.6968491E-07    6.9177041E+06    4.4604193E-07    6.9182710E+06
   -0.72   *******   -7.824E-01    6.9789562E+06    1.6727703E-07    1.6918264E-07    6.9789562E+06    4.4622978E-07    6.9795790E+06
   -0.71   *******   -7.950E-01    7.0388053E+06    1.6664729E-07    1.6858170E-07    7.0388053E+06    4.4615657E-07    7.0394893E+06
   -0.70   *******   -8.078E-01    7.0971863E+06    1.6592154E-07    1.6788641E-07    7.0971863E+06    4.4583051E-07    7.0979372E+06
   -0.69   *******   -8.207E-01    7.1540348E+06    1.6510504E-07    1.6710163E-07    7.1540348E+06    4.4526146E-07    7.1548590E+06
   -0.68   *******   -8.337E-01    7.2092882E+06    1.6420344E-07    1.6623267E-07    7.2092882E+06    4.4446067E-07    7.2101923E+06
   -0.67   *******   -8.468E-01    7.2628848E+06    1.6322275E-07    1.6528516E-07    7.2628848E+06    4.4344059E-07    7.2638764E+06
   -0.66   *******   -8.600E-01    7.3147649E+06    1.6216923E-07    1.6426499E-07    7.3147649E+06    4.4221466E-07    7.3158519E+06
   -0.65   *******   -8.733E-01    7.3648705E+06    1.6104927E-07    1.6317824E-07    7.3648705E+06    4.4079713E-07    7.3660616E+06
   -0.64   *******   -8.867E-01    7.4131456E+06    1.5986938E-07    1.6203112E-07    7.4131456E+06    4.3920294E-07    7.4144500E+06
   -0.63   *******   -9.002E-01    7.4595365E+06    1.5863613E-07    1.6082991E-07    7.4595365E+06    4.3744759E-07    7.4609642E+06
   -0.62   *******   -9.137E-01    7.5039920E+06    1.5735607E-07    1.5958095E-07    7.5039920E+06    4.3554701E-07    7.5055537E+06
   -0.61   *******   -9.273E-01    7.5464632E+06    1.5603574E-07    1.5829060E-07    7.5464632E+06    4.3351747E-07    7.5481704E+06
   -0.60   *******   -9.410E-01    7.5869047E+06    1.5468163E-07    1.5696520E-07    7.5869047E+06    4.3137548E-07    7.5887695E+06
   -0.59   *******   -9.548E-01    7.6252740E+06    1.5330018E-07    1.5561107E-07    7.6252740E+06    4.2913772E-07    7.6273094E+06
   -0.58   *******   -9.686E-01    7.6615322E+06    1.5189772E-07    1.5423447E-07    7.6615322E+06    4.2682093E-07    7.6637518E+06
   -0.57   *******   -9.825E-01    7.6956444E+06    1.5048050E-07    1.5284161E-07    7.6956444E+06    4.2444180E-07    7.6980627E+06
   -0.56   *******   -9.965E-01    7.7275800E+06    1.4905465E-07    1.5143859E-07    7.7275800E+06    4.2201692E-07    7.7302120E+06
   -0.55   *******   -1.010E+00    7.7573131E+06    1.4762614E-07    1.5003140E-07    7.7573131E+06    4.1956262E-07    7.7601746E+06
   -0.54   *******   -1.024E+00    7.7848230E+06    1.4620082E-07    1.4862592E-07    7.7848230E+06    4.1709497E-07    7.7879304E+06
   -0.53   *******   -1.039E+00    7.8100948E+06    1.4478435E-07    1.4722787E-07    7.8100948E+06    4.1462961E-07    7.8134648E+06
   -0.52   *******   -1.053E+00    7.8331195E+06    1.4338221E-07    1.4584281E-07    7.8331195E+06    4.1218175E-07    7.8367692E+06
   -0.51   *******   -1.067E+00    7.8538946E+06    1.4199969E-07    1.4447612E-07    7.8538946E+06    4.0976610E-07    7.8578415E+06
   -0.50   *******   -1.081E+00    7.8724247E+06    1.4064187E-07    1.4313302E-07    7.8724247E+06    4.0739677E-07    7.8766860E+06
   -0.49   *******   -1.095E+00    7.8887212E+06    1.3931362E-07    1.4181849E-07    7.8887212E+06    4.0508725E-07    7.8933143E+06
   -0.48   *******   -1.109E+00    7.9028030E+06    1.3801956E-07    1.4053734E-07    7.9028030E+06    4.0285032E-07    7.9077447E+06
   -0.47   *******   -1.123E+00    7.9146965E+06    1.3676409E-07    1.3929411E-07    7.9146965E+06    4.0069797E-07    7.9200029E+06
   -0.46   *******   -1.137E+00    7.9244352E+06    1.3555128E-07    1.3809307E-07    7.9244352E+06    3.9864130E-07    7.9301216E+06
   -0.45   *******   -1.152E+00    7.9320600E+06    1.3438492E-07    1.3693819E-07    7.9320600E+06    3.9669038E-07    7.9381404E+06
   -0.44   *******   -1.166E+00    7.9376188E+06    1.3326842E-07    1.3583310E-07    7.9376188E+06    3.9485412E-07    7.9441054E+06
   -0.43   *******   -1.180E+00    7.9411661E+06    1.3220477E-07    1.3478099E-07    7.9411661E+06    3.9314009E-07    7.9480695E+06
   -0.42   *******   -1.194E+00    7.9427627E+06    1.3119651E-07    1.3378459E-07    7.9427627E+06    3.9155437E-07    7.9500911E+06
   -0.41   *******   -1.208E+00    7.9424752E+06    1.3024561E-07    1.3284610E-07    7.9424752E+06    3.9010136E-07    7.9502342E+06
   -0.40   *******   -1.222E+00    7.9403758E+06    1.2935347E-07    1.3196708E-07    7.9403758E+06    3.8878361E-07    7.9485682E+06
   -0.39   *******   -1.236E+00    7.9365412E+06    1.2852082E-07    1.3114847E-07    7.9365412E+06    3.8760174E-07    7.9451667E+06
   -0.38   *******   -1.251E+00    7.9310528E+06    1.2774770E-07    1.3039047E-07    7.9310528E+06    3.8655426E-07    7.9401075E+06
   -0.37   *******   -1.265E+00    7.9239953E+06    1.2703338E-07    1.2969253E-07    7.9239953E+06    3.8563759E-07    7.9334722E+06
   -0.36   *******   -1.279E+00    7.9154570E+06    1.2637643E-07    1.2905335E-07    7.9154570E+06    3.8484602E-07    7.9253452E+06
   -0.35   *******   -1.293E+00    7.9055284E+06    1.2577461E-07    1.2847084E-07    7.9055284E+06    3.8417178E-07    7.9158134E+06
   -0.34   *******   -1.307E+00    7.8943019E+06    1.2522501E-07    1.2794217E-07    7.8943019E+06    3.8360520E-07    7.9049658E+06
   -0.33   *******   -1.321E+00    7.8818711E+06    1.2472400E-07    1.2746383E-07    7.8818711E+06    3.8313486E-07    7.8928925E+06
   -0.32   *******   -1.335E+00    7.8683301E+06    1.2426735E-07    1.2703164E-07    7.8683301E+06    3.8274785E-07    7.8796846E+06
   -0.31   *******   -1.349E+00    7.8537729E+06    1.2385032E-07    1.2664092E-07    7.8537729E+06    3.8243009E-07    7.8654332E+06
   -0.30   *******   -1.363E+00    7.8382930E+06    1.2346775E-07    1.2628652E-07    7.8382930E+06    3.8216664E-07    7.8502293E+06
   -0.29   *******   -1.377E+00    7.8219826E+06    1.2311418E-07    1.2596299E-07    7.8219826E+06    3.8194212E-07    7.8341632E+06
   -0.28   *******   -1.391E+00    7.8049325E+06    1.2278401E-07    1.2566469E-07    7.8049325E+06    3.8174110E-07    7.8173240E+06
   -0.27   *******   -1.406E+00    7.7872318E+06    1.2247163E-07    1.2538596E-07    7.7872318E+06    3.8154853E-07    7.7997998E+06
   -0.26   *******   -1.420E+00    7.7689677E+06    1.2217155E-07    1.2512121E-07    7.7689677E+06    3.8135015E-07    7.7816774E+06
   -0.25   *******   -1.434E+00    7.7502255E+06    1.2187856E-07    1.2486513E-07    7.7502255E+06    3.8113296E-07    7.7630417E+06
   -0.24   *******   -1.448E+00    7.7310884E+06    1.2158790E-07    1.2461281E-07    7.7310884E+06    3.8088558E-07    7.7439767E+06
   -0.23   *******   -1.463E+00    7.7116382E+06    1.2129536E-07    1.2435986E-07    7.7116382E+06    3.8059864E-07    7.7245646E+06
   -0.22   *******   -1.477E+00    7.6919545E+06    1.2099744E-07    1.2410257E-07    7.6919545E+06    3.8026519E-07    7.7048866E+06
   -0.21   *******   -1.492E+00    7.6721155E+06    1.2069146E-07    1.2383805E-07    7.6721155E+06    3.7988095E-07    7.6850222E+06
   -0.20   *******   -1.506E+00    7.6521979E+06    1.2037569E-07    1.2356429E-07    7.6521979E+06    3.7944465E-07    7.6650499E+06
   -0.19   *******   -1.521E+00    7.6322766E+06    1.2004946E-07    1.2328032E-07    7.6322766E+06    3.7895822E-07    7.6450466E+06
   -0.18   *******   -1.536E+00    7.6124252E+06    1.1971321E-07    1.2298629E-07    7.6124252E+06    3.7842704E-07    7.6250880E+06
   -0.17   *******   -1.550E+00    7.5927154E+06    1.1936864E-07    1.2268356E-07    7.5927154E+06    3.7786004E-07    7.6052481E+06
   -0.16   *******   -1.566E+00    7.5732178E+06    1.1901872E-07    1.2237473E-07    7.5732178E+06    3.7726982E-07    7.5855997E+06
   -0.15   *******   -1.581E+00    7.5540012E+06    1.1866775E-07    1.2206375E-07    7.5540012E+06    3.7667273E-07    7.5662139E+06
   -0.14   *******   -1.596E+00    7.5351329E+06    1.1832143E-07    1.2175592E-07    7.5351329E+06    3.7608882E-07    7.5471601E+06
   -0.13   *******   -1.611E+00    7.5166792E+06    1.1798682E-07    1.2145794E-07    7.5166792E+06    3.7554183E-07    7.5285068E+06
   -0.12   *******   -1.627E+00    7.4987050E+06    1.1767240E-07    1.2117787E-07    7.4987050E+06    3.7505909E-07    7.5103210E+06
   -0.11   *******   -1.643E+00    7.4812745E+06    1.1738795E-07    1.2092514E-07    7.4812745E+06    3.7467130E-07    7.4926687E+06
   -0.10   *******   -1.659E+00    7.4644509E+06    1.1714455E-07    1.2071046E-07    7.4644509E+06    3.7441230E-07    7.4756150E+06
   -0.09   *******   -1.675E+00    7.4482968E+06    1.1695446E-07    1.2054572E-07    7.4482968E+06    3.7431876E-07    7.4592241E+06
   -0.08   *******   -1.691E+00    7.4328735E+06    1.1683097E-07    1.2044390E-07    7.4328735E+06    3.7442971E-07    7.4435589E+06
   -0.07   *******   -1.708E+00    7.4182412E+06    1.1678820E-07    1.2041886E-07    7.4182412E+06    3.7478603E-07    7.4286809E+06
   -0.06   *******   -1.724E+00    7.4044578E+06    1.1684092E-07    1.2048512E-07    7.4044578E+06    3.7542983E-07    7.4146492E+06
   -0.05   *******   -1.741E+00    7.3915778E+06    1.1700426E-07    1.2065761E-07    7.3915778E+06    3.7640372E-07    7.4015198E+06
   -0.04   *******   -1.758E+00    7.3796514E+06    1.1729340E-07    1.2095137E-07    7.3796514E+06    3.7774991E-07    7.3893437E+06
   -0.03   *******   -1.775E+00    7.3687224E+06    1.1772319E-07    1.2138122E-07    7.3687224E+06    3.7950931E-07    7.3781655E+06
   -0.02   *******   -1.793E+00    7.3588260E+06    1.1830785E-07    1.2196132E-07    7.3588260E+06    3.8172048E-07    7.3680216E+06
   -0.01   *******   -1.810E+00    7.3499872E+06    1.1906046E-07    1.2270483E-07    7.3499872E+06    3.8441847E-07    7.3589375E+06
    0.00   *******   -1.828E+00    7.3422178E+06    1.1999258E-07    1.2362340E-07    7.3422178E+06    3.8763368E-07    7.3509258E+06
    0.01   *******   -1.846E+00    7.3355141E+06    1.2111379E-07    1.2472678E-07    7.3355141E+06    3.9139057E-07    7.3439834E+06
    0.02   *******   -1.864E+00    7.3298542E+06    1.2243122E-07    1.2602230E-07    7.3298542E+06    3.9570647E-07    7.3380888E+06
    0.03   *******   -1.883E+00    7.3251954E+06    1.2394910E-07    1.2751445E-07    7.3251954E+06    4.0059028E-07    7.3331999E+06
    0.04   *******   -1.901E+00    7.3214709E+06    1.2566833E-07    1.2920442E-07    7.3214709E+06    4.0604131E-07    7.3292503E+06
    0.05   *******   -1.920E+00    7.3185874E+06    1.2758608E-07    1.3108971E-07    7.3185874E+06    4.1204817E-07    7.3261471E+06
    0.06   *******   -1.939E+00    7.3164220E+06    1.2969547E-07    1.3316375E-07    7.3164220E+06    4.1858780E-07    7.3237676E+06
    0.07   *******   -1.958E+00    7.3148189E+06    1.3198522E-07    1.3541562E-07    7.3148189E+06    4.2562465E-07    7.3219562E+06
    0.08   *******   -1.977E+00    7.3135865E+06    1.3443952E-07    1.3782987E-07    7.3135865E+06    4.3311016E-07    7.3205216E+06
    0.09   *******   -1.997E+00    7.3124942E+06    1.3703791E-07    1.4038634E-07    7.3124942E+06    4.4098242E-07    7.3192334E+06
    0.10   *******   -2.017E+00    7.3112696E+06    1.3975530E-07    1.4306026E-07    7.3112696E+06    4.4916628E-07    7.3178191E+06
    0.11   *******   -2.037E+00    7.3095960E+06    1.4256208E-07    1.4582235E-07    7.3095960E+06    4.5757368E-07    7.3159621E+06
    0.12   *******   -2.057E+00    7.3071097E+06    1.4542450E-07    1.4863910E-07    7.3071097E+06    4.6610454E-07    7.3132986E+06
    0.13   *******   -2.077E+00    7.3033991E+06    1.4830502E-07    1.5147322E-07    7.3033991E+06    4.7464791E-07    7.3094170E+06
    0.14   *******   -2.097E+00    7.2980040E+06    1.5116293E-07    1.5428419E-07    7.2980040E+06    4.8308367E-07    7.3038569E+06
    0.15   *******   -2.118E+00    7.2904160E+06    1.5395506E-07    1.5702899E-07    7.2904160E+06    4.9128449E-07    7.2961096E+06
    0.16   *******   -2.139E+00    7.2800809E+06    1.5663657E-07    1.5966291E-07    7.2800809E+06    4.9911819E-07    7.2856208E+06
    0.17   *******   -2.160E+00    7.2664016E+06    1.5916190E-07    1.6214047E-07    7.2664016E+06    5.0645041E-07    7.2717931E+06
    0.18   *******   -2.181E+00    7.2487440E+06    1.6148571E-07    1.6441636E-07    7.2487440E+06    5.1314737E-07    7.2539919E+06
    0.19   *******   -2.202E+00    7.2264431E+06    1.6356389E-07    1.6644648E-07    7.2264431E+06    5.1907876E-07    7.2315521E+06
    0.20   *******   -2.224E+00    7.1988124E+06    1.6535453E-07    1.6818889E-07    7.1988124E+06    5.2412062E-07    7.2037866E+06
